# vtk DataFile Version 3.0
Example VTK
ASCII
DATASET UNSTRUCTURED_GRID
POINTS  1589 float
 -0.402624261220E+02 -0.170092829629E+02  0.121500752653E-25
 -0.330945181242E+02 -0.235106830704E+02  0.352221613468E-25
 -0.261467622719E+02 -0.274227062810E+02  0.406062775610E-25
 -0.193144116251E+02 -0.298351356918E+02  0.438503042128E-25
 -0.125142574123E+02 -0.309895420500E+02  0.451510635052E-25
 -0.572295380534E+01 -0.309934739792E+02  0.447958545162E-25
  0.111361685769E+01 -0.298189319294E+02  0.351882534292E-25
  0.546254009700E+01 -0.275511841942E+02  0.228216950644E-25
  0.971613000000E+01 -0.247938000000E+02  0.141326501208E-25
 -0.407011378225E+02 -0.136027468424E+02  0.129683866186E-01
 -0.335521970481E+02 -0.188007631824E+02  0.000000000000E+00
 -0.268136605664E+02 -0.219390993040E+02  0.000000000000E+00
 -0.201562308442E+02 -0.238735066880E+02  0.000000000000E+00
 -0.135487379210E+02 -0.248009834053E+02  0.000000000000E+00
 -0.694892950176E+01 -0.247802058292E+02  0.000000000000E+00
 -0.307147242490E+00 -0.238460662109E+02  0.000000000000E+00
  0.418273959983E+01 -0.224068083577E+02  0.000000000000E+00
  0.901840046947E+01 -0.206652529196E+02  0.000000000000E+00
 -0.411327941666E+02 -0.102129408112E+02  0.178784148648E-01
 -0.340859957182E+02 -0.140778529145E+02  0.000000000000E+00
 -0.274135388915E+02 -0.164526722306E+02  0.000000000000E+00
 -0.208571900476E+02 -0.179185133461E+02  0.000000000000E+00
 -0.143440644535E+02 -0.186064279232E+02  0.000000000000E+00
 -0.782443492890E+01 -0.185608340078E+02  0.000000000000E+00
 -0.124880008379E+01 -0.177693974937E+02  0.000000000000E+00
  0.361650725880E+01 -0.171462962520E+02  0.000000000000E+00
  0.871233150279E+01 -0.163937215138E+02  0.000000000000E+00
 -0.415398033902E+02 -0.684462859852E+01  0.205683239695E-01
 -0.345685850350E+02 -0.939867596056E+01  0.000000000000E+00
 -0.279245372291E+02 -0.110007256062E+02  0.000000000000E+00
 -0.213859024301E+02 -0.119950136354E+02  0.000000000000E+00
 -0.148673359465E+02 -0.124517101109E+02  0.000000000000E+00
 -0.828405399681E+01 -0.123832220081E+02  0.000000000000E+00
 -0.154702877743E+01 -0.117569568458E+02  0.000000000000E+00
  0.369033265226E+01 -0.119261862421E+02  0.000000000000E+00
  0.920077668573E+01 -0.121042337719E+02  0.000000000000E+00
 -0.418685873780E+02 -0.349518957192E+01  0.191698145326E-01
 -0.349543566138E+02 -0.477237264657E+01  0.000000000000E+00
 -0.282951590396E+02 -0.559863977116E+01  0.000000000000E+00
 -0.217325372447E+02 -0.611955575108E+01  0.000000000000E+00
 -0.151540626241E+02 -0.635938251846E+01  0.000000000000E+00
 -0.842504750093E+01 -0.631265983846E+01  0.000000000000E+00
 -0.137575568835E+01 -0.593003260964E+01  0.000000000000E+00
  0.438472876876E+01 -0.693168913713E+01  0.000000000000E+00
  0.103764950856E+02 -0.797037669747E+01  0.000000000000E+00
 -0.420122487441E+02 -0.154531256556E+00  0.162063560175E-01
 -0.351342832775E+02 -0.193672343098E+00  0.000000000000E+00
 -0.284670912140E+02 -0.233030991906E+00  0.000000000000E+00
 -0.219004131004E+02 -0.274254963306E+00  0.000000000000E+00
 -0.153030000012E+02 -0.313975793331E+00  0.000000000000E+00
 -0.850216943579E+01 -0.323699338390E+00  0.000000000000E+00
 -0.127471035341E+01 -0.310642688057E+00  0.000000000000E+00
  0.544695547071E+01 -0.242073858872E+01  0.000000000000E+00
  0.126667000000E+02 -0.428227000000E+01  0.442701881404E-25
 -0.419061509536E+02  0.318774478809E+01  0.199801256864E-01
 -0.350216784492E+02  0.439040659368E+01  0.000000000000E+00
 -0.284125811205E+02  0.514547120006E+01  0.000000000000E+00
 -0.219222067455E+02  0.559182816372E+01  0.000000000000E+00
 -0.154467057619E+02  0.576899571835E+01  0.000000000000E+00
 -0.886230711564E+01  0.570207491505E+01  0.000000000000E+00
 -0.203946354827E+01  0.546535874496E+01  0.000000000000E+00
  0.366855545412E+01  0.346306887826E+01  0.000000000000E+00
  0.976790445917E+01  0.189467696223E+01  0.000000000000E+00
 -0.416085543143E+02  0.653566285664E+01  0.218245185072E-01
 -0.346875291400E+02  0.903382479430E+01  0.000000000000E+00
 -0.281220394052E+02  0.105807327492E+02  0.000000000000E+00
 -0.216874329627E+02  0.115220095162E+02  0.000000000000E+00
 -0.153000754970E+02  0.119396755180E+02  0.000000000000E+00
 -0.887192610900E+01  0.118823158440E+02  0.000000000000E+00
 -0.226193611334E+01  0.114061941731E+02  0.000000000000E+00
  0.253307133346E+01  0.948257932901E+01  0.000000000000E+00
  0.776175804863E+01  0.777581783557E+01  0.000000000000E+00
 -0.412296056013E+02  0.990536838423E+01  0.193163264555E-01
 -0.342416159321E+02  0.137351527393E+02  0.000000000000E+00
 -0.276500744019E+02  0.160758497617E+02  0.000000000000E+00
 -0.211903358318E+02  0.175099077181E+02  0.000000000000E+00
 -0.147826794200E+02  0.181780105874E+02  0.000000000000E+00
 -0.834992341135E+01  0.181433552143E+02  0.000000000000E+00
 -0.177854284725E+01  0.174336682094E+02  0.000000000000E+00
  0.234694492246E+01  0.154619750282E+02  0.000000000000E+00
  0.678949852666E+01  0.135889120154E+02  0.000000000000E+00
 -0.408241484625E+02  0.132950676266E+02  0.143490562743E-01
 -0.337313847508E+02  0.184807672288E+02  0.000000000000E+00
 -0.270550133442E+02  0.216031807510E+02  0.000000000000E+00
 -0.204602288672E+02  0.235212073702E+02  0.000000000000E+00
 -0.139088465766E+02  0.244334180376E+02  0.000000000000E+00
 -0.733249929847E+01  0.244011500015E+02  0.000000000000E+00
 -0.607856140911E+00  0.234410995163E+02  0.000000000000E+00
  0.301690487882E+01  0.213477084772E+02  0.000000000000E+00
  0.705874058979E+01  0.191065534548E+02  0.000000000000E+00
 -0.404109199769E+02  0.167030156266E+02  0.121138356017E-25
 -0.332945482023E+02  0.232048916278E+02  0.353298410299E-25
 -0.263740804671E+02  0.271145346727E+02  0.407751563628E-25
 -0.195615988683E+02  0.295192694856E+02  0.439852335192E-25
 -0.127805634042E+02  0.306561059818E+02  0.451319148591E-25
 -0.600431320502E+01  0.306269211715E+02  0.443095811887E-25
  0.822308921712E+00  0.293850203797E+02  0.318515375901E-25
  0.413384139389E+01  0.272180099543E+02  0.195018841653E-25
  0.742127000000E+01  0.247938000000E+02  0.128258294371E-25
 -0.402669279830E+02 -0.168002539032E+02  0.284358551692E+01
 -0.330994200283E+02 -0.232171172166E+02  0.390001228822E+01
 -0.261483861960E+02 -0.270765403778E+02  0.451279008742E+01
 -0.193133307112E+02 -0.294576483431E+02  0.489880265288E+01
 -0.125094033847E+02 -0.305985383753E+02  0.509183212108E+01
 -0.571392514777E+01 -0.306058056612E+02  0.511302143114E+01
  0.112864078314E+01 -0.294503474762E+02  0.496187306140E+01
  0.550009487445E+01 -0.272475804139E+02  0.439214363904E+01
  0.974472000000E+01 -0.245951000000E+02  0.257295000000E+01
 -0.406768471736E+02 -0.135128436922E+02  0.316014608599E+01
 -0.335268233152E+02 -0.186738035810E+02  0.434624995054E+01
 -0.267731115340E+02 -0.217832238830E+02  0.504485426408E+01
 -0.200980485252E+02 -0.237021008940E+02  0.548768762674E+01
 -0.134693649253E+02 -0.246215041834E+02  0.571781773306E+01
 -0.684138871021E+01 -0.246027055766E+02  0.576285396603E+01
 -0.159327899497E+00 -0.236735137410E+02  0.560943475137E+01
  0.435738850793E+01 -0.222777053054E+02  0.498941777753E+01
  0.915275937076E+01 -0.206112892324E+02  0.305706069085E+01
 -0.410766076733E+02 -0.101926075301E+02  0.340496405060E+01
 -0.340261166518E+02 -0.140512046185E+02  0.468180502424E+01
 -0.273383419227E+02 -0.164116621766E+02  0.544616307551E+01
 -0.207605163113E+02 -0.178693150258E+02  0.593877025618E+01
 -0.142178304129E+02 -0.185543138766E+02  0.619655707232E+01
 -0.765644853735E+01 -0.185116697577E+02  0.625966396327E+01
 -0.102208037751E+01 -0.177262213128E+02  0.608927785224E+01
  0.387052994383E+01 -0.171353555653E+02  0.544105724168E+01
  0.890551089194E+01 -0.164212348094E+02  0.342286606984E+01
 -0.414446273068E+02 -0.685464513532E+01  0.356664773507E+01
 -0.344740996684E+02 -0.941615654879E+01  0.490256703652E+01
 -0.278215638859E+02 -0.110110541606E+02  0.571383531792E+01
 -0.212652840387E+02 -0.120013693709E+02  0.623472181595E+01
 -0.147207656044E+02 -0.124582521506E+02  0.650674096936E+01
 -0.810094049305E+01 -0.123957573918E+02  0.656600471872E+01
 -0.131404115933E+01 -0.117792591230E+02  0.639704132015E+01
  0.395103338713E+01 -0.119753312825E+02  0.570844349995E+01
  0.939751542618E+01 -0.121578306065E+02  0.356431366846E+01
 -0.417437747884E+02 -0.350427926925E+01  0.364334138486E+01
 -0.348290819275E+02 -0.479209411905E+01  0.500013537643E+01
 -0.281704323394E+02 -0.561491708730E+01  0.583650901477E+01
 -0.215988029761E+02 -0.613349389995E+01  0.637031684993E+01
 -0.150050745294E+02 -0.637472376134E+01  0.664183150796E+01
 -0.825878761950E+01 -0.633454161813E+01  0.667691592228E+01
 -0.119413158577E+01 -0.596219204625E+01  0.649363845753E+01
  0.458328098065E+01 -0.698480805175E+01  0.578967998355E+01
  0.105260496368E+02 -0.801140972250E+01  0.348225146224E+01
 -0.418945531105E+02 -0.154245329878E+00  0.363547430433E+01
 -0.349954165720E+02 -0.192400901931E+00  0.497887031013E+01
 -0.283345856885E+02 -0.230249279342E+00  0.581738562771E+01
 -0.217634264210E+02 -0.270716543336E+00  0.635101794145E+01
 -0.151574651402E+02 -0.310730526755E+00  0.661504626225E+01
 -0.835449693892E+01 -0.324152141256E+00  0.663564238697E+01
 -0.114453594351E+01 -0.313044113120E+00  0.638182374893E+01
  0.552085327374E+01 -0.241889125652E+01  0.551055271613E+01
  0.126667000000E+02 -0.428227000000E+01  0.316667000000E+01
 -0.417799683687E+02  0.319692379675E+01  0.364326909766E+01
 -0.348947548896E+02  0.441299386606E+01  0.500233988876E+01
 -0.282850658303E+02  0.516728543060E+01  0.584055932160E+01
 -0.217839926487E+02  0.561302952874E+01  0.637768186047E+01
 -0.152916296950E+02  0.579061782982E+01  0.665321869731E+01
 -0.868916061591E+01  0.572548156221E+01  0.670545711021E+01
 -0.184929308986E+01  0.548298685153E+01  0.650062940202E+01
  0.382793294242E+01  0.347285533497E+01  0.583554656635E+01
  0.987803861907E+01  0.180597162811E+01  0.375590747897E+01
 -0.415120567304E+02  0.654611296618E+01  0.356668945521E+01
 -0.345906296534E+02  0.905396505249E+01  0.490673302349E+01
 -0.280137233275E+02  0.105961889923E+02  0.572026332516E+01
 -0.215583277209E+02  0.115351153890E+02  0.624323486418E+01
 -0.151437465011E+02  0.119527269844E+02  0.651724715390E+01
 -0.868263195543E+01  0.118982206178E+02  0.657111841573E+01
 -0.203750461628E+01  0.114157664151E+02  0.638659935941E+01
  0.275693587398E+01  0.948911546180E+01  0.584784364552E+01
  0.794133765711E+01  0.769488599957E+01  0.416148462821E+01
 -0.411723032259E+02  0.988517395123E+01  0.340543275428E+01
 -0.341790503478E+02  0.137105284246E+02  0.468652147502E+01
 -0.275684441403E+02  0.160386034022E+02  0.545247262275E+01
 -0.210838228176E+02  0.174660302864E+02  0.594507846092E+01
 -0.146463841992E+02  0.181319213750E+02  0.619776942484E+01
 -0.818023406880E+01  0.180999172838E+02  0.624473151370E+01
 -0.157478966146E+01  0.173890778460E+02  0.605908971450E+01
  0.256301658016E+01  0.154355272108E+02  0.557760925777E+01
  0.696981308464E+01  0.135382869750E+02  0.415299043099E+01
 -0.407985872655E+02  0.132053861997E+02  0.316075721555E+01
 -0.337036250527E+02  0.183546856860E+02  0.435023554344E+01
 -0.270092925052E+02  0.214489983383E+02  0.504946799184E+01
 -0.203944289994E+02  0.233528813469E+02  0.549060566635E+01
 -0.138220645282E+02  0.242584700436E+02  0.571396982667E+01
 -0.722376888251E+01  0.242300764103E+02  0.574235011293E+01
 -0.479402660753E+00  0.232802314397E+02  0.555819608083E+01
  0.315811804123E+01  0.212307892170E+02  0.504045399218E+01
  0.717468606165E+01  0.190368401839E+02  0.364639296850E+01
 -0.404135265205E+02  0.164940717964E+02  0.284463012590E+01
 -0.332971503071E+02  0.229113853067E+02  0.390167299510E+01
 -0.263727872967E+02  0.267687447667E+02  0.451485626513E+01
 -0.195579731766E+02  0.291426395136E+02  0.489997953160E+01
 -0.127725786665E+02  0.302671370289E+02  0.509041876103E+01
 -0.599305841867E+01  0.302431802138E+02  0.510732666201E+01
  0.840314451177E+00  0.290237634958E+02  0.494473020761E+01
  0.418025296153E+01  0.269040316935E+02  0.439967305657E+01
  0.746269000000E+01  0.245642000000E+02  0.298701000000E+01
 -0.402791273836E+02 -0.161782861483E+02  0.561830000941E+01
 -0.331130524595E+02 -0.223448206719E+02  0.770910602357E+01
 -0.261532684004E+02 -0.260484933133E+02  0.892236932037E+01
 -0.193103214134E+02 -0.283372729579E+02  0.968664551700E+01
 -0.124957050882E+02 -0.294374679715E+02  0.100675137949E+02
 -0.568805399151E+01 -0.294539836790E+02  0.101081722690E+02
  0.117066094194E+01 -0.283542979259E+02  0.980280110663E+01
  0.560845213972E+01 -0.263439238687E+02  0.867656331518E+01
  0.982977000000E+01 -0.240038000000E+02  0.508255000000E+01
 -0.406236382469E+02 -0.130959957967E+02  0.626708067533E+01
 -0.334680313072E+02 -0.180867624688E+02  0.861930165304E+01
 -0.266851124652E+02 -0.210798133622E+02  0.100021303439E+02
 -0.199684314425E+02 -0.229321889901E+02  0.108764979656E+02
 -0.132881218234E+02 -0.238208789408E+02  0.113252236780E+02
 -0.659371724506E+01 -0.238073362465E+02  0.114030051478E+02
  0.182716027031E+00 -0.229079116671E+02  0.110781247402E+02
  0.477775863993E+01 -0.216681386469E+02  0.984256489707E+01
  0.949354893422E+01 -0.202477840713E+02  0.599828206516E+01
 -0.409487341111E+02 -0.993018255455E+01  0.676875414389E+01
 -0.338807386594E+02 -0.136841375470E+02  0.931608387189E+01
 -0.271582352189E+02 -0.159616202210E+02  0.108289613695E+02
 -0.205252589351E+02 -0.173711261816E+02  0.117984855281E+02
 -0.139075845356E+02 -0.180355750441E+02  0.122968365717E+02
 -0.724406770987E+01 -0.180008252619E+02  0.124018222759E+02
 -0.469263569056E+00 -0.172468662336E+02  0.120387750236E+02
  0.450184323226E+01 -0.167852166367E+02  0.107220625414E+02
  0.942181159317E+01 -0.162441116364E+02  0.668599306243E+01
 -0.412421719658E+02 -0.670122743575E+01  0.711033875087E+01
 -0.342456904312E+02 -0.920982910839E+01  0.978612880340E+01
 -0.275595933243E+02 -0.107505466370E+02  0.113915137268E+02
 -0.209511177954E+02 -0.117088529588E+02  0.124165970311E+02
 -0.143359863882E+02 -0.121554643498E+02  0.129428984942E+02
 -0.762439175673E+01 -0.121078738287E+02  0.130391054971E+02
 -0.716987188426E+00 -0.115280259640E+02  0.126758651188E+02
  0.461701920274E+01 -0.118335962021E+02  0.112685337907E+02
  0.993535542678E+01 -0.121156867915E+02  0.695958841173E+01
 -0.414869400828E+02 -0.343480792176E+01  0.728024225611E+01
 -0.345254772099E+02 -0.470098853885E+01  0.100107763962E+02
 -0.278452128947E+02 -0.549481094728E+01  0.116670929040E+02
 -0.212359231220E+02 -0.599549901284E+01  0.127182970002E+02
 -0.145951810631E+02 -0.623345959775E+01  0.132469268225E+02
 -0.780347789561E+01 -0.620883174727E+01  0.133051091731E+02
 -0.703652405203E+00 -0.586676914936E+01  0.129187057480E+02
  0.510237149637E+01 -0.696672313710E+01  0.114805971761E+02
  0.109291623996E+02 -0.804218179466E+01  0.683201969674E+01
 -0.416082355870E+02 -0.153870980672E+00  0.726909551822E+01
 -0.346586277776E+02 -0.187934689348E+00  0.999447648692E+01
 -0.279841301065E+02 -0.221379959088E+00  0.116551096259E+02
 -0.213837978356E+02 -0.258362808570E+00  0.127074991958E+02
 -0.147453189537E+02 -0.297123758816E+00  0.132256574744E+02
 -0.793188839058E+01 -0.316922298223E+00  0.132631842315E+02
 -0.762783028312E+00 -0.304993315833E+00  0.127694554703E+02
  0.574207116708E+01 -0.240149815143E+01  0.110558123519E+02
  0.126667000000E+02 -0.428227000000E+01  0.633333000000E+01
 -0.415202336411E+02  0.312807034191E+01  0.728000035611E+01
 -0.345855127229E+02  0.433055204410E+01  0.100148771830E+02
 -0.279482581210E+02  0.506399361500E+01  0.116743797342E+02
 -0.214010984822E+02  0.549855546385E+01  0.127313599477E+02
 -0.148510929391E+02  0.567347964606E+01  0.132674181995E+02
 -0.819043534883E+01  0.561651877272E+01  0.133549366433E+02
 -0.129320328594E+01  0.537116665495E+01  0.129387815063E+02
  0.432462596195E+01  0.335086501970E+01  0.116189085358E+02
  0.101933563832E+02  0.159089503388E+01  0.745798077873E+01
 -0.413056246885E+02  0.639344928466E+01  0.711032501161E+01
 -0.343533466303E+02  0.885471040414E+01  0.979347553443E+01
 -0.277328617948E+02  0.103493255336E+02  0.114028958005E+02
 -0.212135964966E+02  0.112615087371E+02  0.124319687559E+02
 -0.147183745326E+02  0.116694411225E+02  0.129627109969E+02
 -0.816431136598E+01  0.116244400079E+02  0.130527482641E+02
 -0.141793288534E+01  0.111422307656E+02  0.126668445737E+02
  0.340489583047E+01  0.921887367616E+01  0.115788800172E+02
  0.846988832417E+01  0.737422352223E+01  0.819122425216E+01
 -0.410401384643E+02  0.962326143492E+01  0.676940346851E+01
 -0.340239546652E+02  0.133480051822E+02  0.932428058993E+01
 -0.273685641114E+02  0.155975455265E+02  0.108400595029E+02
 -0.208183541247E+02  0.169807268189E+02  0.118101735562E+02
 -0.143015450009E+02  0.176284991797E+02  0.123013620136E+02
 -0.774724802783E+01  0.176041272501E+02  0.123833451793E+02
 -0.104994246517E+01  0.169092373560E+02  0.119968208659E+02
  0.315065085936E+01  0.150080905290E+02  0.110258727761E+02
  0.749884741048E+01  0.131616151033E+02  0.815178500822E+01
 -0.407407346378E+02  0.127889680185E+02  0.626827277025E+01
 -0.336365577088E+02  0.177692379818E+02  0.862611658421E+01
 -0.269061872776E+02  0.207497042251E+02  0.100103514092E+02
 -0.202437063120E+02  0.225897924154E+02  0.108820620974E+02
 -0.136179245214E+02  0.234689773365E+02  0.113200135154E+02
 -0.696594428609E+01  0.234505817969E+02  0.113718884989E+02
 -0.171961047221E+00  0.225433473965E+02  0.109981023993E+02
  0.351709831085E+01  0.206152019775E+02  0.998352237000E+01
  0.749265340693E+01  0.185949075013E+02  0.718979823018E+01
 -0.404202836346E+02  0.158722328804E+02  0.561984924401E+01
 -0.333034186202E+02  0.220394111277E+02  0.771257272689E+01
 -0.263697949506E+02  0.257415984089E+02  0.892606195338E+01
 -0.195461949696E+02  0.280247277937E+02  0.968897772211E+01
 -0.127505594168E+02  0.291116886829E+02  0.100647197786E+02
 -0.595880820385E+01  0.291022807448E+02  0.100963767723E+02
  0.890332169168E+00  0.279485288913E+02  0.976782626031E+01
  0.431746044466E+01  0.259687598319E+02  0.869225150942E+01
  0.758595000000E+01  0.238810000000E+02  0.590047000000E+01
 -0.402961389030E+02 -0.151592830905E+02  0.825977174952E+01
 -0.331332103256E+02 -0.209185319440E+02  0.113365927222E+02
 -0.261615936945E+02 -0.243703507110E+02  0.131266182331E+02
 -0.193062581262E+02 -0.265086594541E+02  0.142527906551E+02
 -0.124752359163E+02 -0.275413286901E+02  0.148118177312E+02
 -0.564931341168E+01 -0.275706681631E+02  0.148686404203E+02
  0.123247703551E+01 -0.265593282925E+02  0.144061270665E+02
  0.577675159289E+01 -0.248634802152E+02  0.127491445018E+02
  0.996921000000E+01 -0.230345000000E+02  0.746700000000E+01
 -0.405463736704E+02 -0.123624418605E+02  0.926866904041E+01
 -0.333818242379E+02 -0.170559619849E+02  0.127511628213E+02
 -0.265585496296E+02 -0.198525509514E+02  0.147865984374E+02
 -0.197825037326E+02 -0.215952594945E+02  0.160739157910E+02
 -0.130359335187E+02 -0.224286801971E+02  0.167212138199E+02
 -0.625856743535E+01 -0.224335485198E+02  0.168162747576E+02
  0.620884190530E+00 -0.215928859699E+02  0.163000627455E+02
  0.530970487230E+01 -0.206004689859E+02  0.144809221843E+02
  0.995460343088E+01 -0.195850017295E+02  0.875910506308E+01
 -0.407810134305E+02 -0.942659083944E+01  0.100604066012E+02
 -0.336769631563E+02 -0.129823412811E+02  0.138529081160E+02
 -0.268981908341E+02 -0.151167342988E+02  0.160834428327E+02
 -0.201869450408E+02 -0.164454447719E+02  0.175048260472E+02
 -0.134747577474E+02 -0.170701156391E+02  0.182180976353E+02
 -0.669452725489E+01 -0.170573285052E+02  0.183357315961E+02
  0.215279375698E+00 -0.163649719806E+02  0.177619356636E+02
  0.526937328132E+01 -0.160979222771E+02  0.157854604009E+02
  0.101107151558E+02 -0.158553289539E+02  0.971369198606E+01
 -0.410019620064E+02 -0.639072400620E+01  0.106127377535E+02
 -0.339358957304E+02 -0.877718609010E+01  0.146145779490E+02
 -0.271837763580E+02 -0.102237287823E+02  0.169892577952E+02
 -0.204960624783E+02 -0.111271024895E+02  0.184935443043E+02
 -0.137894761802E+02 -0.115481787178E+02  0.192481986912E+02
 -0.697449838016E+01 -0.115250665262E+02  0.193530805327E+02
  0.363440572222E-01 -0.110075427144E+02  0.187698070471E+02
  0.542583147226E+01 -0.114681415342E+02  0.166473702008E+02
  0.106301183846E+02 -0.119642520311E+02  0.101267046877E+02
 -0.411713936708E+02 -0.328803595076E+01  0.109008373016E+02
 -0.341298766932E+02 -0.449516656344E+01  0.150136749011E+02
 -0.273860209187E+02 -0.523695504332E+01  0.174687045449E+02
 -0.207061838556E+02 -0.570610058712E+01  0.190162444962E+02
 -0.139946063999E+02 -0.592963560756E+01  0.197814958487E+02
 -0.714448531938E+01 -0.592250990579E+01  0.198498226974E+02
 -0.306130010066E-01 -0.562202215730E+01  0.192387351663E+02
  0.575596026435E+01 -0.682497223558E+01  0.170630601610E+02
  0.114213246586E+02 -0.803776708518E+01  0.100238549391E+02
 -0.412521257993E+02 -0.153444864646E+00  0.109241273022E+02
 -0.342242202374E+02 -0.180151886329E+00  0.150450652307E+02
 -0.274899911639E+02 -0.205502399654E+00  0.175127839978E+02
 -0.208221200907E+02 -0.234583547938E+00  0.190660418159E+02
 -0.141192061725E+02 -0.265503683530E+00  0.198240789427E+02
 -0.727116849108E+01 -0.286998981149E+00  0.198753841955E+02
 -0.151154182873E+00 -0.268532742223E+00  0.191659544440E+02
  0.611486813856E+01 -0.235105524429E+01  0.166670261013E+02
  0.126667000000E+02 -0.428227000000E+01  0.950000000000E+01
 -0.412014589032E+02  0.298207790722E+01  0.109009875600E+02
 -0.341815515164E+02  0.413956679760E+01  0.150185557460E+02
 -0.274700090008E+02  0.483564108583E+01  0.174771539112E+02
 -0.208360811379E+02  0.525362827673E+01  0.190307856923E+02
 -0.141908676890E+02  0.542558769107E+01  0.198040349838E+02
 -0.743561419058E+01  0.538676388075E+01  0.199019746279E+02
 -0.464385987233E+00  0.515499009538E+01  0.192652926515E+02
  0.507769431415E+01  0.313968820826E+01  0.173165057256E+02
  0.106766777747E+02  0.127776549851E+01  0.110613212509E+02
 -0.410603145189E+02  0.608383747418E+01  0.106131659820E+02
 -0.340298417963E+02  0.843374407340E+01  0.146233095919E+02
 -0.273270710570E+02  0.984588316380E+01  0.170022176944E+02
 -0.207053325258E+02  0.107137918201E+02  0.185114743539E+02
 -0.140914599235E+02  0.111037776970E+02  0.192709925983E+02
 -0.740425969683E+01  0.110800193553E+02  0.193720049403E+02
 -0.541815456507E+00  0.106270679281E+02  0.187643786811E+02
  0.432721155591E+01  0.872956796306E+01  0.171345605740E+02
  0.925354532246E+01  0.686651524734E+01  0.119847187585E+02
 -0.408658998930E+02  0.912036429922E+01  0.100615791921E+02
 -0.338050502655E+02  0.126536554352E+02  0.138624956808E+02
 -0.270775394841E+02  0.147672347341E+02  0.160964591725E+02
 -0.204296029360E+02  0.160767422255E+02  0.175189245643E+02
 -0.137996669019E+02  0.166892860335E+02  0.182256754516E+02
 -0.712179622585E+01  0.166876736787E+02  0.183230470513E+02
 -0.316309753033E+00  0.160388540761E+02  0.177226740720E+02
  0.397683435743E+01  0.142238493086E+02  0.162708719525E+02
  0.829296997903E+01  0.124896373896E+02  0.118657251200E+02
 -0.406558365613E+02  0.120560486395E+02  0.927029408786E+01
 -0.335365551057E+02  0.167414497924E+02  0.127596417603E+02
 -0.267561358110E+02  0.195287359347E+02  0.147963240868E+02
 -0.200232140446E+02  0.212634804542E+02  0.160813700125E+02
 -0.133245863775E+02  0.220921112015E+02  0.167165379033E+02
 -0.659238702829E+01  0.220987136832E+02  0.167850167038E+02
  0.270444467862E+00  0.212620638934E+02  0.162163894813E+02
  0.404125129437E+01  0.195091669370E+02  0.147541633483E+02
  0.796105913369E+01  0.177978000409E+02  0.105543972739E+02
 -0.404282634261E+02  0.148534291228E+02  0.826220623546E+01
 -0.333118600902E+02  0.206135511028E+02  0.113409374620E+02
 -0.263643762219E+02  0.240647559121E+02  0.131320635142E+02
 -0.195284349634E+02  0.261995867924E+02  0.142556565673E+02
 -0.127148311509E+02  0.272235619019E+02  0.148076803810E+02
 -0.590605401394E+01  0.272347868575E+02  0.148508074698E+02
  0.968170969451E+00  0.261843748843E+02  0.143519324884E+02
  0.453609112813E+01  0.244337770883E+02  0.127764888883E+02
  0.778800000000E+01  0.227610000000E+02  0.866864000000E+01
 -0.403142748121E+02 -0.137698547518E+02  0.107027157085E+02
 -0.331580990415E+02 -0.189787236452E+02  0.146956091621E+02
 -0.261737486462E+02 -0.220922849822E+02  0.170248154283E+02
 -0.193022719386E+02 -0.240269622938E+02  0.184882161881E+02
 -0.124511704504E+02 -0.249664599097E+02  0.192103603869E+02
 -0.560245437364E+01 -0.250083201721E+02  0.192815321348E+02
  0.130281689722E+01 -0.241120256926E+02  0.186621567163E+02
  0.599078731400E+01 -0.228438747348E+02  0.165109477638E+02
  0.101596000000E+02 -0.217110000000E+02  0.966758000000E+01
 -0.404570941283E+02 -0.113299756422E+02  0.121164592934E+02
 -0.332877101016E+02 -0.156095420423E+02  0.166679923619E+02
 -0.264061025247E+02 -0.181479217648E+02  0.193154740016E+02
 -0.195527547644E+02 -0.197320827561E+02  0.209927532792E+02
 -0.127360376070E+02 -0.205028225963E+02  0.218195191146E+02
 -0.590049696573E+01 -0.205148050606E+02  0.219158901393E+02
  0.107879371789E+01 -0.197977072624E+02  0.212008569004E+02
  0.584488999808E+01 -0.191287898097E+02  0.188721147561E+02
  0.104344241410E+02 -0.186186972828E+02  0.113339921791E+02
 -0.406061860061E+02 -0.870191833547E+01  0.132407937066E+02
 -0.334425704726E+02 -0.119684700162E+02  0.182314161451E+02
 -0.265910907831E+02 -0.139129029860E+02  0.211422699603E+02
 -0.197716149355E+02 -0.151195464090E+02  0.229892324944E+02
 -0.129633843734E+02 -0.157056193937E+02  0.238973163705E+02
 -0.610467053652E+01 -0.156963158131E+02  0.240047451084E+02
  0.906073478531E+00 -0.151425795471E+02  0.232142753318E+02
  0.596021424621E+01 -0.151175295864E+02  0.206759987461E+02
  0.107933041099E+02 -0.152170346713E+02  0.125378742647E+02
 -0.407355101635E+02 -0.593261706595E+01  0.140409892319E+02
 -0.335816916439E+02 -0.813709620025E+01  0.193455565488E+02
 -0.267457993194E+02 -0.945564408061E+01  0.224537643058E+02
 -0.199406844052E+02 -0.102716737514E+02  0.244145632325E+02
 -0.131358266851E+02 -0.106684242301E+02  0.253795342991E+02
 -0.625355754037E+01 -0.106479879491E+02  0.254709445965E+02
  0.830848706244E+00 -0.102500403465E+02  0.246534333207E+02
  0.615086397003E+01 -0.109001287538E+02  0.219197335906E+02
  0.112944842244E+02 -0.116290370637E+02  0.131423248894E+02
 -0.408276032248E+02 -0.306619382911E+01  0.144966603853E+02
 -0.336846791117E+02 -0.418306735991E+01  0.199798487050E+02
 -0.268572419962E+02 -0.485392032841E+01  0.232039957778E+02
 -0.200609312657E+02 -0.527191746272E+01  0.252289906327E+02
 -0.132565312832E+02 -0.547653058054E+01  0.262211010245E+02
 -0.636586927746E+01 -0.546580606518E+01  0.262865574873E+02
  0.772326328337E+00 -0.524198715467E+01  0.254311067718E+02
  0.642780955206E+01 -0.655197618857E+01  0.225942226132E+02
  0.118544451687E+02 -0.797397190228E+01  0.131523994360E+02
 -0.408734541898E+02 -0.153052198041E+00  0.145955622193E+02
 -0.337379571882E+02 -0.168473944662E+00  0.201191986639E+02
 -0.269195388289E+02 -0.182563901980E+00  0.233710099470E+02
 -0.201301254802E+02 -0.197161319839E+00  0.254110573035E+02
 -0.133311089500E+02 -0.214854110889E+00  0.264038422093E+02
 -0.643770681813E+01 -0.219941726450E+00  0.264580545794E+02
  0.681643222864E+00 -0.207281484417E+00  0.255541006187E+02
  0.661294749862E+01 -0.228179543832E+01  0.223900249357E+02
  0.126667000000E+02 -0.428227000000E+01  0.126667000000E+02
 -0.408543107796E+02  0.276106486875E+01  0.144970487257E+02
 -0.337261608682E+02  0.384869741948E+01  0.199840721867E+02
 -0.269176842174E+02  0.449573005401E+01  0.232102496890E+02
 -0.201453472466E+02  0.488739999035E+01  0.252389793900E+02
 -0.133740653431E+02  0.506364995017E+01  0.262341369244E+02
 -0.652423383947E+01  0.504908238324E+01  0.263137886552E+02
  0.559373365182E+00  0.485820835123E+01  0.254370617299E+02
  0.597267332778E+01  0.284642814433E+01  0.229471673219E+02
  0.112220038722E+02  0.944180843565E+00  0.145937693234E+02
 -0.407879456574E+02  0.562665151671E+01  0.140420230196E+02
 -0.336597188823E+02  0.781054315939E+01  0.193527766143E+02
 -0.268523279141E+02  0.911094015993E+01  0.224641570915E+02
 -0.200836665505E+02  0.991011717768E+01  0.244270186437E+02
 -0.133244965981E+02  0.102893809825E+02  0.253937914740E+02
 -0.651349167690E+01  0.102821635987E+02  0.254773289019E+02
  0.501597853967E+00  0.991105635781E+01  0.246280087230E+02
  0.532305065806E+01  0.810723121050E+01  0.225570663419E+02
  0.101187362819E+02  0.619688873571E+01  0.155515905570E+02
 -0.406830100879E+02  0.839640386434E+01  0.132424979386E+02
 -0.335521730332E+02  0.116500763801E+02  0.182400622498E+02
 -0.267335207815E+02  0.135845781891E+02  0.211528513026E+02
 -0.199499789188E+02  0.147814568077E+02  0.230005387772E+02
 -0.131895269489E+02  0.153637010810E+02  0.239016599211E+02
 -0.639196766265E+01  0.153673366908E+02  0.239915895443E+02
  0.562791549355E+00  0.148415214202E+02  0.231644363568E+02
  0.488410605880E+01  0.132002641688E+02  0.213201496097E+02
  0.917050970264E+01  0.115506445848E+02  0.152789608864E+02
 -0.405564121854E+02  0.110242468030E+02  0.121186005210E+02
 -0.334253025757E+02  0.152991810324E+02  0.166758924288E+02
 -0.265734649586E+02  0.178335644913E+02  0.193245535918E+02
 -0.197492211565E+02  0.194140846797E+02  0.209995497602E+02
 -0.129633083198E+02  0.201855686537E+02  0.218149109686E+02
 -0.616386926438E+01  0.202015138649E+02  0.218873929703E+02
  0.814741981761E+00  0.194964773998E+02  0.211173911465E+02
  0.469816358217E+01  0.179962014874E+02  0.192832537616E+02
  0.852175532279E+01  0.166344317257E+02  0.137147124654E+02
 -0.404341933912E+02  0.134643406666E+02  0.107051564149E+02
 -0.333200564758E+02  0.186740447254E+02  0.147014110157E+02
 -0.263586854813E+02  0.217882276083E+02  0.170305512359E+02
 -0.195038865297E+02  0.237216839503E+02  0.184917209637E+02
 -0.126707192497E+02  0.246574880343E+02  0.192049069317E+02
 -0.583689938282E+01  0.246905330136E+02  0.192572474586E+02
  0.106018137186E+01  0.237733433390E+02  0.185917744064E+02
  0.482504317476E+01  0.223353607936E+02  0.165517818438E+02
  0.806388000000E+01  0.212317000000E+02  0.112234000000E+02
 -0.403341944509E+02 -0.120465111863E+02  0.128897297860E+02
 -0.331886105657E+02 -0.165784081589E+02  0.177033886890E+02
 -0.261896574712E+02 -0.192805407188E+02  0.205194557166E+02
 -0.192988625140E+02 -0.209647748458E+02  0.222875289639E+02
 -0.124277728451E+02 -0.217866497713E+02  0.231547346744E+02
 -0.555293095676E+01 -0.218376955942E+02  0.232350799790E+02
  0.137562683087E+01 -0.210734345380E+02  0.224724403676E+02
  0.623800091890E+01 -0.203371637437E+02  0.198794815139E+02
  0.103962000000E+02 -0.200660000000E+02  0.116301000000E+02
 -0.403775915016E+02 -0.100298136088E+02  0.147596944663E+02
 -0.332226853489E+02 -0.137834177432E+02  0.202838657635E+02
 -0.262065890957E+02 -0.160124003113E+02  0.235205558011E+02
 -0.192995158312E+02 -0.174069510542E+02  0.255519124517E+02
 -0.124061775111E+02 -0.180901817011E+02  0.265413301440E+02
 -0.550920508987E+01 -0.181427865268E+02  0.266303939563E+02
  0.144483843755E+01 -0.175216998050E+02  0.257346309087E+02
  0.652179279237E+01 -0.172948389821E+02  0.228613962090E+02
  0.107783000000E+02 -0.174101000000E+02  0.138161000000E+02
 -0.404183553417E+02 -0.777623254516E+01  0.162675702665E+02
 -0.332574427288E+02 -0.106640882957E+02  0.223689908023E+02
 -0.262266966396E+02 -0.123739769645E+02  0.259464626119E+02
 -0.193018014556E+02 -0.134470095612E+02  0.281939916145E+02
 -0.123941112908E+02 -0.139735261525E+02  0.292786252853E+02
 -0.547164201677E+01 -0.140204626161E+02  0.293740957157E+02
  0.149531666483E+01 -0.135434684901E+02  0.283689622100E+02
  0.681326765472E+01 -0.138711618024E+02  0.252282702714E+02
  0.112167000000E+02 -0.143623000000E+02  0.153839000000E+02
 -0.404506911226E+02 -0.533830718114E+01  0.173752572390E+02
 -0.332888441165E+02 -0.729908669715E+01  0.238996819083E+02
 -0.262464047675E+02 -0.845480657423E+01  0.277330612752E+02
 -0.193110109986E+02 -0.918363516447E+01  0.301357743777E+02
 -0.123875963397E+02 -0.953877171632E+01  0.312939820058E+02
 -0.545479918900E+01 -0.957321347245E+01  0.313862970798E+02
  0.153941760438E+01 -0.924156053193E+01  0.302997734945E+02
  0.709226488162E+01 -0.101526931859E+02  0.269177765472E+02
  0.116918000000E+02 -0.110591000000E+02  0.162636000000E+02
 -0.404745202186E+02 -0.277718252311E+01  0.180510644634E+02
 -0.333135638048E+02 -0.376656364474E+01  0.248373302212E+02
 -0.262672868719E+02 -0.434997198272E+01  0.288250400694E+02
 -0.193226299321E+02 -0.471533458436E+01  0.313261916924E+02
 -0.123946640639E+02 -0.489340594751E+01  0.325242459377E+02
 -0.545028451971E+01 -0.490576374294E+01  0.326176182233E+02
  0.154177730091E+01 -0.472446384604E+01  0.314612914349E+02
  0.736373066012E+01 -0.623925649140E+01  0.278655825169E+02
  0.121825000000E+02 -0.764825000000E+01  0.164156000000E+02
 -0.404897740261E+02 -0.151861285347E+00  0.182792767462E+02
 -0.333328379146E+02 -0.152455699429E+00  0.251524311852E+02
 -0.262852356964E+02 -0.149301908967E+00  0.291944999475E+02
 -0.193413523899E+02 -0.147586016962E+00  0.317254025591E+02
 -0.124084157819E+02 -0.139784005864E+00  0.329400138627E+02
 -0.546851188659E+01 -0.131098906895E+00  0.330225296722E+02
  0.154356131363E+01 -0.101860449215E+00  0.318594479202E+02
  0.753899125528E+01 -0.224259641350E+01  0.279734653726E+02
  0.126667000000E+02 -0.428227000000E+01  0.158333000000E+02
 -0.404976722278E+02  0.247147752735E+01  0.180523738316E+02
 -0.333450979469E+02  0.346416926684E+01  0.248383948846E+02
 -0.263026195010E+02  0.404823224844E+01  0.288276262065E+02
 -0.193621592128E+02  0.442362864265E+01  0.313260830813E+02
 -0.124364848038E+02  0.460825410671E+01  0.325212724178E+02
 -0.549578592143E+01  0.464839458037E+01  0.326068743951E+02
  0.149653890046E+01  0.450767777609E+01  0.314287607903E+02
  0.711247681531E+01  0.257093866343E+01  0.283215056363E+02
  0.118361000000E+02  0.321550000000E+00  0.181406000000E+02
 -0.404966518819E+02  0.503419781996E+01  0.173759394779E+02
 -0.333502711389E+02  0.699451322210E+01  0.239044230300E+02
 -0.263180052879E+02  0.815527506908E+01  0.277346121044E+02
 -0.193863436380E+02  0.888813614058E+01  0.301400266196E+02
 -0.124750016784E+02  0.925473848748E+01  0.312828184032E+02
 -0.553890889951E+01  0.930742188783E+01  0.313751525770E+02
  0.142975258358E+01  0.901554244878E+01  0.302173291287E+02
  0.665425392978E+01  0.733415962350E+01  0.276274522705E+02
  0.109263000000E+02  0.536502000000E+01  0.190777000000E+02
 -0.404856357550E+02  0.747083817902E+01  0.162703620393E+02
 -0.333487855746E+02  0.103609295601E+02  0.223725596054E+02
 -0.263297605334E+02  0.120722997857E+02  0.259523806487E+02
 -0.194162622733E+02  0.131516022759E+02  0.281954253696E+02
 -0.125172123206E+02  0.136841229398E+02  0.292703927217E+02
 -0.560524990484E+01  0.137482951648E+02  0.293504277402E+02
  0.135256835600E+01  0.132961263719E+02  0.282759772694E+02
  0.613881452439E+01  0.118896756901E+02  0.259427376876E+02
  0.100058000000E+02  0.104672000000E+02  0.185739000000E+02
 -0.404647528538E+02  0.972493846380E+01  0.147617766774E+02
 -0.333401445727E+02  0.134791076875E+02  0.202903470927E+02
 -0.263416462241E+02  0.157110147265E+02  0.235251045816E+02
 -0.194455213468E+02  0.171081517204E+02  0.255562488687E+02
 -0.125683369532E+02  0.177964974881E+02  0.265313815714E+02
 -0.567895700126E+01  0.178579327039E+02  0.266041136612E+02
  0.126061641760E+01  0.172503107165E+02  0.256409691020E+02
  0.564501566570E+01  0.160677762060E+02  0.233583586251E+02
  0.914430000000E+01  0.152428000000E+02  0.166673000000E+02
 -0.404389340985E+02  0.117411492212E+02  0.128926061734E+02
 -0.333307218398E+02  0.162743266684E+02  0.177084953523E+02
 -0.263504794827E+02  0.189775878820E+02  0.205264062290E+02
 -0.194767418264E+02  0.206632520825E+02  0.222902412878E+02
 -0.126189148911E+02  0.214860308580E+02  0.231479572364E+02
 -0.576097624843E+01  0.215370377691E+02  0.232074267813E+02
  0.116404002791E+01  0.207725322898E+02  0.223880339408E+02
  0.517077353753E+01  0.197253100260E+02  0.199546177929E+02
  0.840678000000E+01  0.193310000000E+02  0.135017000000E+02
  0.190000000000E+02 -0.642341000000E+01  0.186146000003E-14
  0.200484000000E+02 -0.299524000000E+01  0.148917000001E-14
  0.218837000000E+02 -0.250348000000E+01  0.148917000000E-14
  0.237190000000E+02 -0.201172000000E+01  0.148917000000E-14
  0.255542000000E+02 -0.151997000000E+01  0.148917000000E-14
  0.273895000000E+02 -0.102821000000E+01  0.148917000000E-14
  0.292247000000E+02 -0.536455000000E+00  0.148917000000E-14
  0.310600000000E+02 -0.446989000000E-01  0.148917000000E-14
  0.328953000000E+02  0.447057000000E+00  0.148917000000E-14
  0.347305000000E+02  0.938813000000E+00  0.148917000000E-14
  0.365658000000E+02  0.143057000000E+01  0.148917000000E-14
  0.166514999994E+02 -0.414326611965E+00  0.148917000000E-14
  0.176105848512E+02  0.146223199173E+01  0.119134000000E-14
  0.194143772567E+02  0.215695789011E+01  0.119134000000E-14
  0.213496439796E+02  0.264696213341E+01  0.119134000000E-14
  0.233230258499E+02  0.314864114687E+01  0.119134000000E-14
  0.253122998982E+02  0.366256756489E+01  0.119134000000E-14
  0.273052497403E+02  0.418526909203E+01  0.119134000000E-14
  0.292981818774E+02  0.471224275729E+01  0.119134000000E-14
  0.312895881875E+02  0.523813925573E+01  0.119134000000E-14
  0.332788978723E+02  0.576063685496E+01  0.119134000000E-14
  0.353069000000E+02  0.612883000000E+01  0.119134000001E-14
  0.134782469007E+02  0.542169423262E+01  0.111688000000E-14
  0.151018757454E+02  0.609260004796E+01  0.893502000000E-15
  0.170242833811E+02  0.658558202305E+01  0.893502000000E-15
  0.191390643531E+02  0.706176933246E+01  0.893502000000E-15
  0.213012109234E+02  0.757695911484E+01  0.893502000000E-15
  0.234651838842E+02  0.812546330274E+01  0.893502000000E-15
  0.256208833759E+02  0.868632652721E+01  0.893502000000E-15
  0.277649155988E+02  0.925171533243E+01  0.893502000000E-15
  0.298941669221E+02  0.981788221135E+01  0.893502000000E-15
  0.320009605533E+02  0.103621207994E+02  0.893502000000E-15
  0.340480000000E+02  0.108271000000E+02  0.893502000006E-15
  0.114381738682E+02  0.115320903317E+02  0.744585000000E-15
  0.135762836485E+02  0.109889251408E+02  0.595668000000E-15
  0.156823046746E+02  0.110774757975E+02  0.595668000000E-15
  0.178768952956E+02  0.114953293841E+02  0.595668000000E-15
  0.200669430994E+02  0.120309013452E+02  0.595668000000E-15
  0.222458142069E+02  0.125934247957E+02  0.595668000000E-15
  0.244082253835E+02  0.131663014161E+02  0.595668000000E-15
  0.265550195493E+02  0.137412275131E+02  0.595668000000E-15
  0.286855504935E+02  0.143137445769E+02  0.595668000000E-15
  0.307837626370E+02  0.148980881508E+02  0.595668000000E-15
  0.327891000000E+02  0.155254000000E+02  0.595668000006E-15
  0.112693747567E+02  0.173513198202E+02  0.372293000000E-15
  0.133606674870E+02  0.159163448965E+02  0.297834000000E-15
  0.156002686879E+02  0.158367026672E+02  0.297834000000E-15
  0.176447803373E+02  0.163286755432E+02  0.297834000000E-15
  0.196611800809E+02  0.168434648463E+02  0.297834000000E-15
  0.216605723024E+02  0.173765081414E+02  0.297834000000E-15
  0.236510613643E+02  0.179117023343E+02  0.297834000000E-15
  0.256363332625E+02  0.184470099625E+02  0.297834000000E-15
  0.276173184689E+02  0.189845405897E+02  0.297834000000E-15
  0.295947433858E+02  0.195257492068E+02  0.297834000000E-15
  0.315302000000E+02  0.202236000000E+02  0.297834000005E-15
  0.111319000000E+02  0.229407000000E+02  0.165940657616E-25
  0.137540000000E+02  0.204961000000E+02  0.923265390404E-26
  0.155892000000E+02  0.209878000000E+02  0.272083857652E-26
  0.174245000000E+02  0.214796000000E+02  0.406437643723E-26
  0.192597000000E+02  0.219713000000E+02  0.419444306704E-26
  0.210950000000E+02  0.224631000000E+02  0.419898522655E-26
  0.229303000000E+02  0.229549000000E+02  0.415269526157E-26
  0.247655000000E+02  0.234466000000E+02  0.409475167762E-26
  0.266008000000E+02  0.239384000000E+02  0.402331723958E-26
  0.284360000000E+02  0.244301000000E+02  0.364222694042E-26
  0.302713000000E+02  0.249219000000E+02  0.129740298723E-26
  0.189516000000E+02 -0.624265000000E+01  0.237780000000E+01
  0.200097000000E+02 -0.285063000000E+01  0.190224000000E+01
  0.218450000000E+02 -0.235887000000E+01  0.190224000000E+01
  0.236802000000E+02 -0.186712000000E+01  0.190224000000E+01
  0.255155000000E+02 -0.137536000000E+01  0.190224000000E+01
  0.273507000000E+02 -0.883603000000E+00  0.190224000000E+01
  0.291860000000E+02 -0.391847000000E+00  0.190224000000E+01
  0.310213000000E+02  0.999096000000E-01  0.190224000000E+01
  0.328565000000E+02  0.591666000000E+00  0.190224000000E+01
  0.346918000000E+02  0.108342000000E+01  0.190224000000E+01
  0.365270000000E+02  0.157518000000E+01  0.190224000000E+01
  0.167036683612E+02 -0.402405581320E+00  0.303928857028E+01
  0.176669998407E+02  0.149020586436E+01  0.249371171423E+01
  0.194848954294E+02  0.218311215098E+01  0.234655814181E+01
  0.214199415013E+02  0.267040767326E+01  0.230373539585E+01
  0.233848098608E+02  0.317031127234E+01  0.228978490497E+01
  0.253623579634E+02  0.368155185355E+01  0.228707053345E+01
  0.273425681908E+02  0.420109331552E+01  0.228790535275E+01
  0.293230612976E+02  0.472509413592E+01  0.228982429304E+01
  0.313025630985E+02  0.524848638754E+01  0.229361499868E+01
  0.332818193717E+02  0.577037938742E+01  0.230376771204E+01
  0.353023000000E+02  0.614577000000E+01  0.234949000000E+01
  0.136330615854E+02  0.540122236717E+01  0.347617401632E+01
  0.152192260240E+02  0.609782635828E+01  0.272868293945E+01
  0.171457745957E+02  0.659613978783E+01  0.255242028085E+01
  0.192545398246E+02  0.707528167006E+01  0.247532566217E+01
  0.214013510677E+02  0.758913918196E+01  0.244768203163E+01
  0.235455843099E+02  0.813367285655E+01  0.244478252773E+01
  0.256802131168E+02  0.868956643275E+01  0.245030714958E+01
  0.278040627766E+02  0.925003025503E+01  0.245973504186E+01
  0.299154845975E+02  0.981197565430E+01  0.247700867402E+01
  0.320090517154E+02  0.103541555828E+02  0.251305345567E+01
  0.340497000000E+02  0.108208000000E+02  0.258462000000E+01
  0.116195369661E+02  0.115173569191E+02  0.347746916146E+01
  0.137024808569E+02  0.110007086374E+02  0.270157911140E+01
  0.158065562267E+02  0.111061913714E+02  0.254154670545E+01
  0.179912487082E+02  0.115308686195E+02  0.246007120186E+01
  0.201638075094E+02  0.120657997343E+02  0.243677334820E+01
  0.223215028581E+02  0.126244333366E+02  0.243796473206E+01
  0.244620606037E+02  0.131923649705E+02  0.244640454169E+01
  0.265883544600E+02  0.137619236778E+02  0.245755874592E+01
  0.287011108395E+02  0.143295396836E+02  0.247572661914E+01
  0.307867570713E+02  0.149090577494E+02  0.251226052896E+01
  0.327874000000E+02  0.155317000000E+02  0.258462000000E+01
  0.113958400449E+02  0.173054083818E+02  0.304127132129E+01
  0.134627465142E+02  0.158931429704E+02  0.243915005728E+01
  0.156944812201E+02  0.158445226786E+02  0.229868894043E+01
  0.177266472100E+02  0.163413226927E+02  0.227902449856E+01
  0.197288252329E+02  0.168542668407E+02  0.227977093938E+01
  0.217138170291E+02  0.173841490888E+02  0.228522847504E+01
  0.236906667661E+02  0.179159301735E+02  0.228983276659E+01
  0.256636506593E+02  0.184477118858E+02  0.229315703626E+01
  0.276333324936E+02  0.189818060260E+02  0.229709053138E+01
  0.296020570117E+02  0.195185416654E+02  0.230635846128E+01
  0.315347000000E+02  0.202067000000E+02  0.234949000000E+01
  0.111803000000E+02  0.227600000000E+02  0.237780000000E+01
  0.137927000000E+02  0.203515000000E+02  0.190224000000E+01
  0.156280000000E+02  0.208432000000E+02  0.190224000000E+01
  0.174632000000E+02  0.213350000000E+02  0.190224000000E+01
  0.192985000000E+02  0.218267000000E+02  0.190224000000E+01
  0.211338000000E+02  0.223185000000E+02  0.190224000000E+01
  0.229690000000E+02  0.228103000000E+02  0.190224000000E+01
  0.248043000000E+02  0.233020000000E+02  0.190224000000E+01
  0.266395000000E+02  0.237938000000E+02  0.190224000000E+01
  0.284748000000E+02  0.242855000000E+02  0.190224000000E+01
  0.303100000000E+02  0.247773000000E+02  0.190224000000E+01
  0.188075000000E+02 -0.570481000000E+01  0.469706000000E+01
  0.198944000000E+02 -0.242036000000E+01  0.375765000000E+01
  0.217297000000E+02 -0.192861000000E+01  0.375765000000E+01
  0.235649000000E+02 -0.143685000000E+01  0.375765000000E+01
  0.254002000000E+02 -0.945094000000E+00  0.375765000000E+01
  0.272354000000E+02 -0.453338000000E+00  0.375765000000E+01
  0.290707000000E+02  0.384183000000E-01  0.375765000000E+01
  0.309060000000E+02  0.530174000000E+00  0.375765000000E+01
  0.327412000000E+02  0.102193000000E+01  0.375765000000E+01
  0.345765000000E+02  0.151369000000E+01  0.375765000000E+01
  0.364117000000E+02  0.200544000000E+01  0.375765000000E+01
  0.167888057235E+02 -0.183086741393E+00  0.597569105437E+01
  0.177782488205E+02  0.171664542701E+01  0.489575636787E+01
  0.196363282798E+02  0.239626680648E+01  0.463614281480E+01
  0.215662784122E+02  0.287632836820E+01  0.457154933165E+01
  0.235051621591E+02  0.337113010810E+01  0.455309548229E+01
  0.254502903112E+02  0.387369670141E+01  0.455068964837E+01
  0.273975052117E+02  0.438547270568E+01  0.455237618014E+01
  0.293457422349E+02  0.490223086493E+01  0.455508553235E+01
  0.312958283737E+02  0.541868094736E+01  0.456021377189E+01
  0.332490359760E+02  0.593873966670E+01  0.457474791477E+01
  0.352519000000E+02  0.633409000000E+01  0.465214000000E+01
  0.140556945114E+02  0.543813336877E+01  0.680296289637E+01
  0.155444170451E+02  0.619048972055E+01  0.538307801754E+01
  0.174882237297E+02  0.669943712753E+01  0.505329318969E+01
  0.195754615433E+02  0.718504880862E+01  0.492850620242E+01
  0.216743836422E+02  0.769322480038E+01  0.489059750700E+01
  0.237592511322E+02  0.822482332838E+01  0.489043462825E+01
  0.258327922130E+02  0.876638460605E+01  0.490071333321E+01
  0.278986521024E+02  0.931294253486E+01  0.491523564802E+01
  0.299592028818E+02  0.986266052730E+01  0.494113930755E+01
  0.320139560055E+02  0.103984629655E+02  0.499829314960E+01
  0.340361000000E+02  0.108715000000E+02  0.512240000000E+01
  0.121674185966E+02  0.113857931274E+02  0.680147926472E+01
  0.140933280595E+02  0.109667227868E+02  0.534037991651E+01
  0.161941195302E+02  0.111266250161E+02  0.503386201568E+01
  0.183456016152E+02  0.115694230574E+02  0.490156637991E+01
  0.204635085754E+02  0.121008083550E+02  0.487215539673E+01
  0.225573083708E+02  0.126477007861E+02  0.487913850536E+01
  0.246346631773E+02  0.132007008571E+02  0.489425198652E+01
  0.267021979767E+02  0.137547349078E+02  0.491155376290E+01
  0.287642330093E+02  0.143079070068E+02  0.493887422722E+01
  0.308129851129E+02  0.148736794541E+02  0.499680982819E+01
  0.328010000000E+02  0.154809000000E+02  0.512240000000E+01
  0.117659316323E+02  0.170101590470E+02  0.596096875860E+01
  0.137674113960E+02  0.156832482779E+02  0.480533343027E+01
  0.159765936182E+02  0.157253652570E+02  0.455940993064E+01
  0.179745516299E+02  0.162296429676E+02  0.453365891476E+01
  0.199377656292E+02  0.167362440015E+02  0.453872215413E+01
  0.218844165538E+02  0.172586013495E+02  0.454891415564E+01
  0.238271777969E+02  0.177812931047E+02  0.455614244921E+01
  0.257689400199E+02  0.183040455177E+02  0.456083595752E+01
  0.277108762431E+02  0.188299181455E+02  0.456606239950E+01
  0.296573067614E+02  0.193559180630E+02  0.457914523513E+01
  0.315852000000E+02  0.200184000000E+02  0.465214000000E+01
  0.113244000000E+02  0.222221000000E+02  0.469706000000E+01
  0.139080000000E+02  0.199212000000E+02  0.375765000000E+01
  0.157433000000E+02  0.204130000000E+02  0.375765000000E+01
  0.175785000000E+02  0.209047000000E+02  0.375765000000E+01
  0.194138000000E+02  0.213965000000E+02  0.375765000000E+01
  0.212490000000E+02  0.218882000000E+02  0.375765000000E+01
  0.230843000000E+02  0.223800000000E+02  0.375765000000E+01
  0.249196000000E+02  0.228717000000E+02  0.375765000000E+01
  0.267548000000E+02  0.233635000000E+02  0.375765000000E+01
  0.285901000000E+02  0.238553000000E+02  0.375765000000E+01
  0.304253000000E+02  0.243470000000E+02  0.375765000000E+01
  0.185712000000E+02 -0.482316000000E+01  0.690066000000E+01
  0.197054000000E+02 -0.171504000000E+01  0.552052000000E+01
  0.215407000000E+02 -0.122328000000E+01  0.552052000000E+01
  0.233759000000E+02 -0.731524000000E+00  0.552052000000E+01
  0.252112000000E+02 -0.239767000000E+00  0.552052000000E+01
  0.270465000000E+02  0.251989000000E+00  0.552052000000E+01
  0.288817000000E+02  0.743745000000E+00  0.552052000000E+01
  0.307170000000E+02  0.123550000000E+01  0.552052000000E+01
  0.325522000000E+02  0.172726000000E+01  0.552052000000E+01
  0.343875000000E+02  0.221901000000E+01  0.552052000000E+01
  0.362228000000E+02  0.271077000000E+01  0.552052000000E+01
  0.168974424007E+02  0.240373467915E+00  0.871621348509E+01
  0.179471548481E+02  0.213091186301E+01  0.712101918737E+01
  0.198610016045E+02  0.278617157638E+01  0.682385507594E+01
  0.217687519133E+02  0.325715287822E+01  0.677306222235E+01
  0.236599772321E+02  0.373767296571E+01  0.676114401969E+01
  0.255569319229E+02  0.423145344435E+01  0.675975704546E+01
  0.274576726226E+02  0.473343551101E+01  0.676166447231E+01
  0.293611594721E+02  0.524027147526E+01  0.676405889945E+01
  0.312666260655E+02  0.574912256873E+01  0.676692058340E+01
  0.331831419310E+02  0.626277325709E+01  0.677669255530E+01
  0.351572000000E+02  0.668746000000E+01  0.686226000000E+01
  0.146993433344E+02  0.555699925551E+01  0.982764710235E+01
  0.160696814896E+02  0.637232866902E+01  0.787268335137E+01
  0.180460962630E+02  0.689648535078E+01  0.745947005644E+01
  0.200847621397E+02  0.738950979424E+01  0.734909354037E+01
  0.220930269555E+02  0.788080258287E+01  0.732545668575E+01
  0.240807234637E+02  0.839290844119E+01  0.733047171405E+01
  0.260608073974E+02  0.891343363803E+01  0.734193986634E+01
  0.280392815216E+02  0.943928086995E+01  0.735483304772E+01
  0.300206007044E+02  0.997111491652E+01  0.737512816912E+01
  0.320168956241E+02  0.104952925359E+02  0.742673323442E+01
  0.340077000000E+02  0.109773000000E+02  0.756765000000E+01
  0.130229243504E+02  0.111703425695E+02  0.981066107145E+01
  0.147396539839E+02  0.108953007413E+02  0.783341852416E+01
  0.168385847672E+02  0.111455041528E+02  0.743689639932E+01
  0.189234959121E+02  0.116097216782E+02  0.731934326879E+01
  0.209372906462E+02  0.121318430222E+02  0.730688451678E+01
  0.229274307880E+02  0.126574912529E+02  0.731926232551E+01
  0.249082917098E+02  0.131864510094E+02  0.733543518740E+01
  0.268877415314E+02  0.137165412302E+02  0.735095622959E+01
  0.288713938039E+02  0.142461101806E+02  0.737253449941E+01
  0.308636442049E+02  0.147923414202E+02  0.742484822431E+01
  0.328293000000E+02  0.153751000000E+02  0.756765000000E+01
  0.123183091994E+02  0.164947442863E+02  0.866359887298E+01
  0.142477128681E+02  0.153042651793E+02  0.702795436106E+01
  0.164206979685E+02  0.154794914220E+02  0.674684975505E+01
  0.183600929671E+02  0.159868643541E+02  0.673875597433E+01
  0.202565997577E+02  0.164883823597E+02  0.674972311395E+01
  0.221506871733E+02  0.169971013996E+02  0.675961340303E+01
  0.240470636051E+02  0.175069659733E+02  0.676629546558E+01
  0.259465888878E+02  0.180171755586E+02  0.677023564931E+01
  0.278481465978E+02  0.185282927621E+02  0.677308487140E+01
  0.297614415134E+02  0.190419469530E+02  0.678143941283E+01
  0.316799000000E+02  0.196650000000E+02  0.686226000000E+01
  0.115607000000E+02  0.213405000000E+02  0.690066000000E+01
  0.140970000000E+02  0.192159000000E+02  0.552052000000E+01
  0.159323000000E+02  0.197076000000E+02  0.552052000000E+01
  0.177675000000E+02  0.201994000000E+02  0.552052000000E+01
  0.196028000000E+02  0.206911000000E+02  0.552052000000E+01
  0.214380000000E+02  0.211829000000E+02  0.552052000000E+01
  0.232733000000E+02  0.216747000000E+02  0.552052000000E+01
  0.251086000000E+02  0.221664000000E+02  0.552052000000E+01
  0.269438000000E+02  0.226582000000E+02  0.552052000000E+01
  0.287791000000E+02  0.231499000000E+02  0.552052000000E+01
  0.306143000000E+02  0.236417000000E+02  0.552052000000E+01
  0.182487000000E+02 -0.361938000000E+01  0.893434000000E+01
  0.194474000000E+02 -0.752015000000E+00  0.714747000000E+01
  0.212826000000E+02 -0.260259000000E+00  0.714747000000E+01
  0.231179000000E+02  0.231497000000E+00  0.714747000000E+01
  0.249532000000E+02  0.723254000000E+00  0.714747000000E+01
  0.267884000000E+02  0.121501000000E+01  0.714747000000E+01
  0.286237000000E+02  0.170677000000E+01  0.714747000000E+01
  0.304589000000E+02  0.219852000000E+01  0.714747000000E+01
  0.322942000000E+02  0.269028000000E+01  0.714747000000E+01
  0.341295000000E+02  0.318203000000E+01  0.714747000000E+01
  0.359647000000E+02  0.367379000000E+01  0.714747000000E+01
  0.169600030119E+02  0.861867948788E+00  0.112187759955E+02
  0.181538805936E+02  0.271651076899E+01  0.909654290834E+01
  0.201214368503E+02  0.332536908351E+01  0.888989777138E+01
  0.219623560166E+02  0.376311502070E+01  0.888076185559E+01
  0.237988063068E+02  0.425028569730E+01  0.887293037728E+01
  0.256467357755E+02  0.473917017346E+01  0.887286195452E+01
  0.275011163624E+02  0.523426574828E+01  0.887369035556E+01
  0.293595294632E+02  0.573169964751E+01  0.887441737172E+01
  0.312202439978E+02  0.622747103276E+01  0.887662456905E+01
  0.330785203767E+02  0.673760642195E+01  0.887348311743E+01
  0.350211000000E+02  0.719544000000E+01  0.893645000000E+01
  0.154113064976E+02  0.578422090735E+01  0.124542187990E+02
  0.167535238210E+02  0.664330091077E+01  0.100842544792E+02
  0.187732669121E+02  0.717442362918E+01  0.976229977416E+01
  0.206887494633E+02  0.764738834732E+01  0.973950890379E+01
  0.225697694294E+02  0.812630818588E+01  0.972841326870E+01
  0.244447943344E+02  0.862088505233E+01  0.973372865235E+01
  0.263240166957E+02  0.912043370308E+01  0.973937855208E+01
  0.282083975707E+02  0.962353256427E+01  0.974464727606E+01
  0.300986867163E+02  0.101320626223E+02  0.975402488889E+01
  0.320076377266E+02  0.106423069673E+02  0.976736372975E+01
  0.339656000000E+02  0.111347000000E+02  0.987697000000E+01
  0.139906228201E+02  0.109015415241E+02  0.124176113590E+02
  0.155916738128E+02  0.107830839961E+02  0.100627128284E+02
  0.176892542342E+02  0.111625344011E+02  0.974438646484E+01
  0.196173755078E+02  0.116440530451E+02  0.972213366567E+01
  0.214922510773E+02  0.121410146756E+02  0.971871253042E+01
  0.233651994763E+02  0.126378396675E+02  0.972770289873E+01
  0.252433373735E+02  0.131396154433E+02  0.973572435904E+01
  0.271274506605E+02  0.136440892249E+02  0.974224289180E+01
  0.290194947484E+02  0.141486654841E+02  0.975225319496E+01
  0.309286366386E+02  0.146622935725E+02  0.976574015379E+01
  0.328715000000E+02  0.152178000000E+02  0.987697000000E+01
  0.129294143310E+02  0.157771470114E+02  0.111263928240E+02
  0.148599961817E+02  0.147625379366E+02  0.903612373504E+01
  0.169722074664E+02  0.151087429277E+02  0.884307641256E+01
  0.187940961259E+02  0.156244047350E+02  0.886515890875E+01
  0.206309895779E+02  0.161041355143E+02  0.886827594050E+01
  0.224755993107E+02  0.165976685556E+02  0.887424004376E+01
  0.243284957135E+02  0.170931026485E+02  0.887724459787E+01
  0.261858199298E+02  0.175903810224E+02  0.887865203174E+01
  0.280441712143E+02  0.180912346838E+02  0.888074403725E+01
  0.299073961838E+02  0.185788820772E+02  0.887703294649E+01
  0.318160000000E+02  0.191570000000E+02  0.893645000000E+01
  0.118832000000E+02  0.201367000000E+02  0.893434000000E+01
  0.143550000000E+02  0.182529000000E+02  0.714747000000E+01
  0.161903000000E+02  0.187446000000E+02  0.714747000000E+01
  0.180256000000E+02  0.192364000000E+02  0.714747000000E+01
  0.198608000000E+02  0.197281000000E+02  0.714747000000E+01
  0.216961000000E+02  0.202199000000E+02  0.714747000000E+01
  0.235313000000E+02  0.207116000000E+02  0.714747000000E+01
  0.253666000000E+02  0.212034000000E+02  0.714747000000E+01
  0.272019000000E+02  0.216952000000E+02  0.714747000000E+01
  0.290371000000E+02  0.221869000000E+02  0.714747000000E+01
  0.308724000000E+02  0.226787000000E+02  0.714747000000E+01
  0.178477000000E+02 -0.212313000000E+01  0.107480000000E+02
  0.191266000000E+02  0.444988000000E+00  0.859842000000E+01
  0.209619000000E+02  0.936744000000E+00  0.859842000000E+01
  0.227972000000E+02  0.142850000000E+01  0.859842000000E+01
  0.246324000000E+02  0.192026000000E+01  0.859842000000E+01
  0.264677000000E+02  0.241201000000E+01  0.859842000000E+01
  0.283029000000E+02  0.290377000000E+01  0.859842000000E+01
  0.301382000000E+02  0.339552000000E+01  0.859842000000E+01
  0.319735000000E+02  0.388728000000E+01  0.859842000000E+01
  0.338087000000E+02  0.437904000000E+01  0.859842000000E+01
  0.356440000000E+02  0.487079000000E+01  0.859842000000E+01
  0.168520000000E+02  0.159314000000E+01  0.135433000000E+02
  0.183300000000E+02  0.341800000000E+01  0.108346000000E+02
  0.201653000000E+02  0.390976000000E+01  0.108346000000E+02
  0.220005000000E+02  0.440152000000E+01  0.108346000000E+02
  0.238358000000E+02  0.489327000000E+01  0.108346000000E+02
  0.256711000000E+02  0.538503000000E+01  0.108346000000E+02
  0.275063000000E+02  0.587679000000E+01  0.108346000000E+02
  0.293416000000E+02  0.636854000000E+01  0.108346000000E+02
  0.311768000000E+02  0.686030000000E+01  0.108346000000E+02
  0.330121000000E+02  0.735205000000E+01  0.108346000000E+02
  0.348474000000E+02  0.784381000000E+01  0.108346000000E+02
  0.156814000000E+02  0.596188000000E+01  0.150129000000E+02
  0.173935000000E+02  0.691300000000E+01  0.120103000000E+02
  0.192288000000E+02  0.740475000000E+01  0.120103000000E+02
  0.210641000000E+02  0.789651000000E+01  0.120103000000E+02
  0.228993000000E+02  0.838826000000E+01  0.120103000000E+02
  0.247346000000E+02  0.888002000000E+01  0.120103000000E+02
  0.265698000000E+02  0.937178000000E+01  0.120103000000E+02
  0.284051000000E+02  0.986353000000E+01  0.120103000000E+02
  0.302404000000E+02  0.103553000000E+02  0.120103000000E+02
  0.320756000000E+02  0.108470000000E+02  0.120103000000E+02
  0.339109000000E+02  0.113388000000E+02  0.120103000000E+02
  0.144505000000E+02  0.105554000000E+02  0.150129000000E+02
  0.164089000000E+02  0.105878000000E+02  0.120103000000E+02
  0.182441000000E+02  0.110796000000E+02  0.120103000000E+02
  0.200794000000E+02  0.115714000000E+02  0.120103000000E+02
  0.219147000000E+02  0.120631000000E+02  0.120103000000E+02
  0.237499000000E+02  0.125549000000E+02  0.120103000000E+02
  0.255852000000E+02  0.130466000000E+02  0.120103000000E+02
  0.274204000000E+02  0.135384000000E+02  0.120103000000E+02
  0.292557000000E+02  0.140301000000E+02  0.120103000000E+02
  0.310909000000E+02  0.145219000000E+02  0.120103000000E+02
  0.329262000000E+02  0.150137000000E+02  0.120103000000E+02
  0.132799000000E+02  0.149242000000E+02  0.135433000000E+02
  0.154724000000E+02  0.140828000000E+02  0.108346000000E+02
  0.173077000000E+02  0.145746000000E+02  0.108346000000E+02
  0.191429000000E+02  0.150664000000E+02  0.108346000000E+02
  0.209782000000E+02  0.155581000000E+02  0.108346000000E+02
  0.228134000000E+02  0.160499000000E+02  0.108346000000E+02
  0.246487000000E+02  0.165416000000E+02  0.108346000000E+02
  0.264839000000E+02  0.170334000000E+02  0.108346000000E+02
  0.283192000000E+02  0.175251000000E+02  0.108346000000E+02
  0.301545000000E+02  0.180169000000E+02  0.108346000000E+02
  0.319897000000E+02  0.185086000000E+02  0.108346000000E+02
  0.122842000000E+02  0.186405000000E+02  0.107480000000E+02
  0.146758000000E+02  0.170559000000E+02  0.859842000000E+01
  0.165110000000E+02  0.175476000000E+02  0.859842000000E+01
  0.183463000000E+02  0.180394000000E+02  0.859842000000E+01
  0.201816000000E+02  0.185311000000E+02  0.859842000000E+01
  0.220168000000E+02  0.190229000000E+02  0.859842000000E+01
  0.238521000000E+02  0.195146000000E+02  0.859842000000E+01
  0.256873000000E+02  0.200064000000E+02  0.859842000000E+01
  0.275226000000E+02  0.204981000000E+02  0.859842000000E+01
  0.293578000000E+02  0.209899000000E+02  0.859842000000E+01
  0.311931000000E+02  0.214817000000E+02  0.859842000000E+01
  0.212941000000E+02 -0.703810000000E+01  0.104707000000E-14
  0.235881000000E+02 -0.765280000000E+01  0.104707000000E-14
  0.258822000000E+02 -0.826749000000E+01  0.104707000000E-14
  0.281763000000E+02 -0.888219000000E+01  0.104707000000E-14
  0.304704000000E+02 -0.949688000000E+01  0.104707000000E-14
  0.327644000000E+02 -0.101116000000E+02  0.104707000000E-14
  0.350585000000E+02 -0.107263000000E+02  0.104707000000E-14
  0.373526000000E+02 -0.113410000000E+02  0.104707000000E-14
  0.165597819040E+02 -0.954728123094E+01  0.837658000000E-15
  0.189158032206E+02 -0.100593475302E+02  0.837658000000E-15
  0.214646000441E+02 -0.107476100541E+02  0.837658000000E-15
  0.240291728885E+02 -0.114194302611E+02  0.837658000000E-15
  0.265582729081E+02 -0.120913232028E+02  0.837658000000E-15
  0.290558969023E+02 -0.127564229718E+02  0.837658000000E-15
  0.315328404316E+02 -0.134159444474E+02  0.837658000000E-15
  0.339941038112E+02 -0.140791806758E+02  0.837658000000E-15
  0.364674000000E+02 -0.146444000000E+02  0.837658000004E-15
  0.149179455397E+02 -0.126737508133E+02  0.628244000000E-15
  0.173465895839E+02 -0.131664612383E+02  0.628244000000E-15
  0.200036957905E+02 -0.138287114593E+02  0.628244000000E-15
  0.226860147309E+02 -0.145351685597E+02  0.628244000000E-15
  0.253350618671E+02 -0.152438391685E+02  0.628244000000E-15
  0.279476437785E+02 -0.159446962295E+02  0.628244000000E-15
  0.305318521597E+02 -0.166392235938E+02  0.628244000000E-15
  0.330898302735E+02 -0.173220670335E+02  0.628244000000E-15
  0.355823000000E+02 -0.179479000000E+02  0.628244000004E-15
  0.140588872085E+02 -0.160133044374E+02  0.418829000000E-15
  0.165380030499E+02 -0.163734716707E+02  0.418829000000E-15
  0.192086221655E+02 -0.170230112425E+02  0.418829000000E-15
  0.218725864290E+02 -0.177341020235E+02  0.418829000000E-15
  0.245047357510E+02 -0.184458544404E+02  0.418829000000E-15
  0.271041770881E+02 -0.191502644109E+02  0.418829000000E-15
  0.296799208033E+02 -0.198454373572E+02  0.418829000000E-15
  0.322300441642E+02 -0.205377899033E+02  0.418829000000E-15
  0.346971000000E+02 -0.212514000000E+02  0.418829000004E-15
  0.139365012231E+02 -0.194896007419E+02  0.209415000000E-15
  0.165090558545E+02 -0.197924808218E+02  0.209415000000E-15
  0.190321866766E+02 -0.204718305857E+02  0.209415000000E-15
  0.215407032685E+02 -0.211419848573E+02  0.209415000000E-15
  0.240230472508E+02 -0.218169433159E+02  0.209415000000E-15
  0.264886375388E+02 -0.224845414772E+02  0.209415000000E-15
  0.289437268993E+02 -0.231494897377E+02  0.209415000000E-15
  0.313940057926E+02 -0.238049257542E+02  0.209415000000E-15
  0.338119000000E+02 -0.245548000000E+02  0.209415000004E-15
  0.145742000000E+02 -0.229407000000E+02  0.117208799285E-25
  0.168683000000E+02 -0.235554000000E+02  0.276982452581E-26
  0.191623000000E+02 -0.241701000000E+02  0.328748468092E-26
  0.214564000000E+02 -0.247848000000E+02  0.315953296953E-26
  0.237505000000E+02 -0.253995000000E+02  0.301495721128E-26
  0.260446000000E+02 -0.260142000000E+02  0.287750312370E-26
  0.283386000000E+02 -0.266289000000E+02  0.277747829351E-26
  0.306327000000E+02 -0.272436000000E+02  0.255009921328E-26
  0.329268000000E+02 -0.278583000000E+02  0.921197934144E-27
  0.189728000000E+02 -0.652508000000E+01  0.133751000000E+01
  0.212668000000E+02 -0.713978000000E+01  0.133751000000E+01
  0.235609000000E+02 -0.775448000000E+01  0.133751000000E+01
  0.258550000000E+02 -0.836917000000E+01  0.133751000000E+01
  0.281491000000E+02 -0.898387000000E+01  0.133751000000E+01
  0.304431000000E+02 -0.959856000000E+01  0.133751000000E+01
  0.327372000000E+02 -0.102133000000E+02  0.133751000000E+01
  0.350313000000E+02 -0.108280000000E+02  0.133751000000E+01
  0.373253000000E+02 -0.114426000000E+02  0.133751000000E+01
  0.166838683282E+02 -0.955886651348E+01  0.183905301194E+01
  0.190553175371E+02 -0.101037744235E+02  0.159982897557E+01
  0.215784718737E+02 -0.107780310904E+02  0.156420872786E+01
  0.241089136268E+02 -0.114430835894E+02  0.157791548893E+01
  0.266106158774E+02 -0.121090039413E+02  0.159590714950E+01
  0.290876892410E+02 -0.127698394612E+02  0.160745103348E+01
  0.315490301533E+02 -0.134261537050E+02  0.161402360975E+01
  0.339983894070E+02 -0.140868525313E+02  0.162025363485E+01
  0.364642000000E+02 -0.146563000000E+02  0.165198000000E+01
  0.150801252335E+02 -0.126728320562E+02  0.206590843648E+01
  0.175168809466E+02 -0.131999429709E+02  0.175862414003E+01
  0.201480436783E+02 -0.138598856652E+02  0.170636459872E+01
  0.227937388122E+02 -0.145565258494E+02  0.170803006073E+01
  0.254086869465E+02 -0.152559620577E+02  0.172688791890E+01
  0.279932435355E+02 -0.159492786087E+02  0.174209128271E+01
  0.305555825456E+02 -0.166380223974E+02  0.175418632752E+01
  0.330981141388E+02 -0.173171288752E+02  0.177383144603E+01
  0.355835000000E+02 -0.179434000000E+02  0.181731000000E+01
  0.142037379987E+02 -0.160219132537E+02  0.203421438995E+01
  0.166888445654E+02 -0.164166045071E+02  0.177311854412E+01
  0.193355524495E+02 -0.170685570650E+02  0.170943961686E+01
  0.219674708861E+02 -0.177709868294E+02  0.171454900404E+01
  0.245693995607E+02 -0.184733909178E+02  0.173132340515E+01
  0.271433816075E+02 -0.191698514193E+02  0.174507009687E+01
  0.296987983965E+02 -0.198587104986E+02  0.175597621790E+01
  0.322344459909E+02 -0.205463739548E+02  0.177476366499E+01
  0.346959000000E+02 -0.212558000000E+02  0.181731000000E+01
  0.140423066528E+02 -0.194786434470E+02  0.179933018322E+01
  0.166149658085E+02 -0.198138372428E+02  0.160471356851E+01
  0.191179904290E+02 -0.204935749998E+02  0.158534343349E+01
  0.216047677782E+02 -0.211572910202E+02  0.159496405533E+01
  0.240684067757E+02 -0.218255604263E+02  0.160681370210E+01
  0.265187554774E+02 -0.224879772112E+02  0.161390953116E+01
  0.289611790511E+02 -0.231484794144E+02  0.161785903234E+01
  0.314011510031E+02 -0.238003493848E+02  0.162235251109E+01
  0.338151000000E+02 -0.245429000000E+02  0.165198000000E+01
  0.146014000000E+02 -0.228391000000E+02  0.133751000000E+01
  0.168955000000E+02 -0.234538000000E+02  0.133751000000E+01
  0.191896000000E+02 -0.240685000000E+02  0.133751000000E+01
  0.214837000000E+02 -0.246831000000E+02  0.133751000000E+01
  0.237777000000E+02 -0.252978000000E+02  0.133751000000E+01
  0.260718000000E+02 -0.259125000000E+02  0.133751000000E+01
  0.283659000000E+02 -0.265272000000E+02  0.133751000000E+01
  0.306600000000E+02 -0.271419000000E+02  0.133751000000E+01
  0.329540000000E+02 -0.277566000000E+02  0.133751000000E+01
  0.188917000000E+02 -0.682761000000E+01  0.264210000000E+01
  0.211858000000E+02 -0.744231000000E+01  0.264210000000E+01
  0.234798000000E+02 -0.805701000000E+01  0.264210000000E+01
  0.257739000000E+02 -0.867170000000E+01  0.264210000000E+01
  0.280680000000E+02 -0.928640000000E+01  0.264210000000E+01
  0.303621000000E+02 -0.990109000000E+01  0.264210000000E+01
  0.326561000000E+02 -0.105158000000E+02  0.264210000000E+01
  0.349502000000E+02 -0.111305000000E+02  0.264210000000E+01
  0.372443000000E+02 -0.117452000000E+02  0.264210000000E+01
  0.169574900965E+02 -0.969444257765E+01  0.356612448836E+01
  0.193731870738E+02 -0.103171894764E+02  0.318249825160E+01
  0.218286410945E+02 -0.109555685898E+02  0.313238185046E+01
  0.242737925525E+02 -0.116033151313E+02  0.315600045643E+01
  0.267087164587E+02 -0.122535696129E+02  0.318356954441E+01
  0.291366972968E+02 -0.129048736325E+02  0.320016890022E+01
  0.315605317828E+02 -0.135531483812E+02  0.320929902030E+01
  0.339805438925E+02 -0.142075236199E+02  0.321763530430E+01
  0.364288000000E+02 -0.147888000000E+02  0.327103000000E+01
  0.154946955370E+02 -0.127260647339E+02  0.400401045310E+01
  0.179594463036E+02 -0.133389284229E+02  0.349705629862E+01
  0.205220731034E+02 -0.139906948505E+02  0.341976919541E+01
  0.230702808083E+02 -0.146600203904E+02  0.342735458282E+01
  0.255940211059E+02 -0.153344437595E+02  0.345805608474E+01
  0.281044559958E+02 -0.160082190232E+02  0.348045687661E+01
  0.306082094022E+02 -0.166820620164E+02  0.349745412709E+01
  0.331081221231E+02 -0.173506799508E+02  0.352719177606E+01
  0.355739000000E+02 -0.179791000000E+02  0.360168000000E+01
  0.146044316665E+02 -0.160022128803E+02  0.395951631970E+01
  0.171095545715E+02 -0.164885565239E+02  0.351902378847E+01
  0.196919785100E+02 -0.171432360613E+02  0.342263470810E+01
  0.222371615414E+02 -0.178230295647E+02  0.343610627522E+01
  0.247568532894E+02 -0.185009385605E+02  0.346410886686E+01
  0.272628169959E+02 -0.191761892373E+02  0.348467738291E+01
  0.297635138781E+02 -0.198481271446E+02  0.350006272835E+01
  0.322590464942E+02 -0.205230894068E+02  0.352858089521E+01
  0.347055000000E+02 -0.212201000000E+02  0.360168000000E+01
  0.143331189256E+02 -0.193484276018E+02  0.351259132210E+01
  0.169078134182E+02 -0.197673358002E+02  0.318766196430E+01
  0.193585189154E+02 -0.204440006332E+02  0.316230286732E+01
  0.217892597802E+02 -0.210913149282E+02  0.318027976667E+01
  0.242058583551E+02 -0.217442722765E+02  0.319946141730E+01
  0.266195060070E+02 -0.223932735299E+02  0.320982448573E+01
  0.290309848478E+02 -0.230433216259E+02  0.321523935891E+01
  0.314450232185E+02 -0.236867493095E+02  0.322100250285E+01
  0.338506000000E+02 -0.244105000000E+02  0.327103000000E+01
  0.146825000000E+02 -0.225365000000E+02  0.264210000000E+01
  0.169766000000E+02 -0.231512000000E+02  0.264210000000E+01
  0.192706000000E+02 -0.237659000000E+02  0.264210000000E+01
  0.215647000000E+02 -0.243806000000E+02  0.264210000000E+01
  0.238588000000E+02 -0.249953000000E+02  0.264210000000E+01
  0.261529000000E+02 -0.256100000000E+02  0.264210000000E+01
  0.284469000000E+02 -0.262247000000E+02  0.264210000000E+01
  0.307410000000E+02 -0.268394000000E+02  0.264210000000E+01
  0.330351000000E+02 -0.274541000000E+02  0.264210000000E+01
  0.187588000000E+02 -0.732355000000E+01  0.388162000000E+01
  0.210529000000E+02 -0.793824000000E+01  0.388162000000E+01
  0.233470000000E+02 -0.855294000000E+01  0.388162000000E+01
  0.256410000000E+02 -0.916763000000E+01  0.388162000000E+01
  0.279351000000E+02 -0.978233000000E+01  0.388162000000E+01
  0.302292000000E+02 -0.103970000000E+02  0.388162000000E+01
  0.325233000000E+02 -0.110117000000E+02  0.388162000000E+01
  0.348173000000E+02 -0.116264000000E+02  0.388162000000E+01
  0.371114000000E+02 -0.122411000000E+02  0.388162000000E+01
  0.172868851311E+02 -0.997513467170E+01  0.511145998177E+01
  0.197554963482E+02 -0.106668950800E+02  0.472599660592E+01
  0.221195660746E+02 -0.112634478704E+02  0.469235812871E+01
  0.244582127882E+02 -0.118845110147E+02  0.471754452733E+01
  0.268174674792E+02 -0.125200123353E+02  0.474087133496E+01
  0.291882931711E+02 -0.131586155853E+02  0.475496714488E+01
  0.315619588200E+02 -0.137970181000E+02  0.476183395196E+01
  0.339412366930E+02 -0.144402979069E+02  0.476643074801E+01
  0.363622000000E+02 -0.150372000000E+02  0.482502000000E+01
  0.160484600540E+02 -0.128652799370E+02  0.572792240570E+01
  0.185603723071E+02 -0.135593129601E+02  0.519159808850E+01
  0.210241514873E+02 -0.141940618143E+02  0.513873617117E+01
  0.234334213357E+02 -0.148224529229E+02  0.515398935374E+01
  0.258394350957E+02 -0.154669367218E+02  0.518222229028E+01
  0.282546143474E+02 -0.161159410740E+02  0.520088236088E+01
  0.306783610069E+02 -0.167697706545E+02  0.521304174944E+01
  0.331184753215E+02 -0.174228021848E+02  0.523756055424E+01
  0.355540000000E+02 -0.180535000000E+02  0.532100000000E+01
  0.151747274116E+02 -0.159813336113E+02  0.569400523967E+01
  0.177115354183E+02 -0.165716561997E+02  0.521132927275E+01
  0.202007919256E+02 -0.172201250964E+02  0.513751830563E+01
  0.226142164864E+02 -0.178681208114E+02  0.516010922951E+01
  0.250242638750E+02 -0.185126973465E+02  0.518662636902E+01
  0.274406385360E+02 -0.191607317100E+02  0.520421713132E+01
  0.298652783222E+02 -0.198091147785E+02  0.521523010051E+01
  0.323030669093E+02 -0.204668970876E+02  0.523876514724E+01
  0.347254000000E+02 -0.211457000000E+02  0.532100000000E+01
  0.147557867868E+02 -0.191197955528E+02  0.507568245491E+01
  0.173326603194E+02 -0.196410411363E+02  0.472471362720E+01
  0.197066207938E+02 -0.203041530961E+02  0.471581582588E+01
  0.220541873576E+02 -0.209327195998E+02  0.473716470483E+01
  0.244143649318E+02 -0.215640469609E+02  0.475443183841E+01
  0.267814960964E+02 -0.221976981065E+02  0.476370415205E+01
  0.291500360083E+02 -0.228323598808E+02  0.476754832067E+01
  0.315263678458E+02 -0.234655042287E+02  0.476990302871E+01
  0.339172000000E+02 -0.241620000000E+02  0.482502000000E+01
  0.148154000000E+02 -0.220406000000E+02  0.388162000000E+01
  0.171095000000E+02 -0.226553000000E+02  0.388162000000E+01
  0.194035000000E+02 -0.232700000000E+02  0.388162000000E+01
  0.216976000000E+02 -0.238847000000E+02  0.388162000000E+01
  0.239917000000E+02 -0.244994000000E+02  0.388162000000E+01
  0.262858000000E+02 -0.251141000000E+02  0.388162000000E+01
  0.285798000000E+02 -0.257288000000E+02  0.388162000000E+01
  0.308739000000E+02 -0.263435000000E+02  0.388162000000E+01
  0.331680000000E+02 -0.269582000000E+02  0.388162000000E+01
  0.185774000000E+02 -0.800067000000E+01  0.502556000000E+01
  0.208714000000E+02 -0.861537000000E+01  0.502556000000E+01
  0.231655000000E+02 -0.923006000000E+01  0.502556000000E+01
  0.254596000000E+02 -0.984476000000E+01  0.502556000000E+01
  0.277537000000E+02 -0.104595000000E+02  0.502556000000E+01
  0.300477000000E+02 -0.110741000000E+02  0.502556000000E+01
  0.323418000000E+02 -0.116888000000E+02  0.502556000000E+01
  0.346359000000E+02 -0.123035000000E+02  0.502556000000E+01
  0.369300000000E+02 -0.129182000000E+02  0.502556000000E+01
  0.175762704114E+02 -0.104299611970E+02  0.646075999945E+01
  0.200892231923E+02 -0.111023452477E+02  0.620811952097E+01
  0.223303065787E+02 -0.116580404376E+02  0.621066151467E+01
  0.246004015162E+02 -0.122793323771E+02  0.622164134785E+01
  0.269069364187E+02 -0.129015822148E+02  0.623302013785E+01
  0.292300804776E+02 -0.135287076503E+02  0.623952244827E+01
  0.315583131048E+02 -0.141524557825E+02  0.624355288016E+01
  0.338788541314E+02 -0.147823366247E+02  0.624105567850E+01
  0.362665000000E+02 -0.153944000000E+02  0.628344000000E+01
  0.166408302032E+02 -0.131229302508E+02  0.718918831244E+01
  0.192040978859E+02 -0.138229840707E+02  0.683568356333E+01
  0.214965774899E+02 -0.144134813346E+02  0.684689685848E+01
  0.237786037731E+02 -0.150186639343E+02  0.685017568763E+01
  0.260887440691E+02 -0.156407625077E+02  0.686410588725E+01
  0.284223449429E+02 -0.162679860146E+02  0.687118066338E+01
  0.307664258684E+02 -0.168992820800E+02  0.687679399129E+01
  0.331236583404E+02 -0.175323021533E+02  0.688146039084E+01
  0.355243000000E+02 -0.181642000000E+02  0.694474000000E+01
  0.158269543499E+02 -0.159886356047E+02  0.717978390741E+01
  0.184060890946E+02 -0.166434766345E+02  0.684307252525E+01
  0.207174197747E+02 -0.172675811873E+02  0.684311376301E+01
  0.230053169807E+02 -0.178756488266E+02  0.685241809880E+01
  0.253218523674E+02 -0.184923375687E+02  0.686564355474E+01
  0.276578417666E+02 -0.191175852948E+02  0.687265296341E+01
  0.300036474044E+02 -0.197448329629E+02  0.687784733337E+01
  0.323611563261E+02 -0.203772514679E+02  0.688205750916E+01
  0.347551000000E+02 -0.210351000000E+02  0.694474000000E+01
  0.152646111928E+02 -0.188082700408E+02  0.644216818384E+01
  0.178296152835E+02 -0.194258296666E+02  0.620310272936E+01
  0.200666509079E+02 -0.200634902986E+02  0.622148790022E+01
  0.223580385511E+02 -0.206623739597E+02  0.623056991449E+01
  0.246703641236E+02 -0.212787345356E+02  0.624023541840E+01
  0.269947641998E+02 -0.218988160685E+02  0.624451642647E+01
  0.293202845783E+02 -0.225235936898E+02  0.624708846342E+01
  0.316420030415E+02 -0.231388863374E+02  0.624346545007E+01
  0.340129000000E+02 -0.238049000000E+02  0.628344000000E+01
  0.149968000000E+02 -0.213635000000E+02  0.502556000000E+01
  0.172909000000E+02 -0.219782000000E+02  0.502556000000E+01
  0.195850000000E+02 -0.225929000000E+02  0.502556000000E+01
  0.218790000000E+02 -0.232076000000E+02  0.502556000000E+01
  0.241731000000E+02 -0.238223000000E+02  0.502556000000E+01
  0.264672000000E+02 -0.244369000000E+02  0.502556000000E+01
  0.287613000000E+02 -0.250516000000E+02  0.502556000000E+01
  0.310553000000E+02 -0.256663000000E+02  0.502556000000E+01
  0.333494000000E+02 -0.262810000000E+02  0.502556000000E+01
  0.183519000000E+02 -0.884231000000E+01  0.604576000000E+01
  0.206459000000E+02 -0.945701000000E+01  0.604576000000E+01
  0.229400000000E+02 -0.100717000000E+02  0.604576000000E+01
  0.252341000000E+02 -0.106864000000E+02  0.604576000000E+01
  0.275282000000E+02 -0.113011000000E+02  0.604576000000E+01
  0.298222000000E+02 -0.119158000000E+02  0.604576000000E+01
  0.321163000000E+02 -0.125305000000E+02  0.604576000000E+01
  0.344104000000E+02 -0.131452000000E+02  0.604576000000E+01
  0.367044000000E+02 -0.137599000000E+02  0.604576000000E+01
  0.177917000000E+02 -0.109327000000E+02  0.761811000000E+01
  0.200858000000E+02 -0.115474000000E+02  0.761811000000E+01
  0.223799000000E+02 -0.121621000000E+02  0.761811000000E+01
  0.246740000000E+02 -0.127768000000E+02  0.761811000000E+01
  0.269680000000E+02 -0.133915000000E+02  0.761811000000E+01
  0.292621000000E+02 -0.140062000000E+02  0.761811000000E+01
  0.315562000000E+02 -0.146209000000E+02  0.761811000000E+01
  0.338503000000E+02 -0.152356000000E+02  0.761811000000E+01
  0.361443000000E+02 -0.158503000000E+02  0.761811000000E+01
  0.171333000000E+02 -0.133901000000E+02  0.844474000000E+01
  0.194273000000E+02 -0.140048000000E+02  0.844474000000E+01
  0.217214000000E+02 -0.146195000000E+02  0.844474000000E+01
  0.240155000000E+02 -0.152342000000E+02  0.844474000000E+01
  0.263096000000E+02 -0.158489000000E+02  0.844474000000E+01
  0.286036000000E+02 -0.164636000000E+02  0.844474000000E+01
  0.308977000000E+02 -0.170783000000E+02  0.844474000000E+01
  0.331918000000E+02 -0.176930000000E+02  0.844474000000E+01
  0.354859000000E+02 -0.183077000000E+02  0.844474000000E+01
  0.164409000000E+02 -0.159740000000E+02  0.844474000000E+01
  0.187350000000E+02 -0.165887000000E+02  0.844474000000E+01
  0.210291000000E+02 -0.172034000000E+02  0.844474000000E+01
  0.233231000000E+02 -0.178181000000E+02  0.844474000000E+01
  0.256172000000E+02 -0.184328000000E+02  0.844474000000E+01
  0.279113000000E+02 -0.190475000000E+02  0.844474000000E+01
  0.302054000000E+02 -0.196622000000E+02  0.844474000000E+01
  0.324994000000E+02 -0.202769000000E+02  0.844474000000E+01
  0.347935000000E+02 -0.208916000000E+02  0.844474000000E+01
  0.157825000000E+02 -0.184314000000E+02  0.761811000000E+01
  0.180765000000E+02 -0.190461000000E+02  0.761811000000E+01
  0.203706000000E+02 -0.196608000000E+02  0.761811000000E+01
  0.226647000000E+02 -0.202755000000E+02  0.761811000000E+01
  0.249588000000E+02 -0.208902000000E+02  0.761811000000E+01
  0.272528000000E+02 -0.215049000000E+02  0.761811000000E+01
  0.295469000000E+02 -0.221196000000E+02  0.761811000000E+01
  0.318410000000E+02 -0.227343000000E+02  0.761811000000E+01
  0.341351000000E+02 -0.233490000000E+02  0.761811000000E+01
  0.152223000000E+02 -0.205218000000E+02  0.604576000000E+01
  0.175164000000E+02 -0.211365000000E+02  0.604576000000E+01
  0.198105000000E+02 -0.217512000000E+02  0.604576000000E+01
  0.221046000000E+02 -0.223659000000E+02  0.604576000000E+01
  0.243986000000E+02 -0.229806000000E+02  0.604576000000E+01
  0.266927000000E+02 -0.235953000000E+02  0.604576000000E+01
  0.289868000000E+02 -0.242100000000E+02  0.604576000000E+01
  0.312809000000E+02 -0.248247000000E+02  0.604576000000E+01
  0.335749000000E+02 -0.254394000000E+02  0.604576000000E+01
 -0.431191228940E+02 -0.141916501893E+02  0.000000000000E+00
 -0.393639696868E+02 -0.248500669108E+02  0.000000000000E+00
 -0.324808100603E+02 -0.310327033307E+02  0.000000000000E+00
 -0.257159027435E+02 -0.349418452841E+02  0.000000000000E+00
 -0.190356379871E+02 -0.373143673377E+02  0.000000000000E+00
 -0.123815797428E+02 -0.384787127217E+02  0.000000000000E+00
 -0.573121976210E+01 -0.385197154013E+02  0.000000000000E+00
  0.932123519987E+00 -0.374105307564E+02  0.000000000000E+00
  0.538425311968E+01 -0.352974157540E+02  0.000000000000E+00
  0.100675000000E+02 -0.323857000000E+02  0.000000000000E+00
 -0.431231888451E+02 -0.140194457238E+02  0.237886121792E+01
 -0.393714532380E+02 -0.245396331324E+02  0.413451568951E+01
 -0.324875724506E+02 -0.306349369293E+02  0.507788064882E+01
 -0.257190499620E+02 -0.344903596084E+02  0.567868502280E+01
 -0.190354085399E+02 -0.368309757030E+02  0.605047760471E+01
 -0.123768775537E+02 -0.379831623792E+02  0.624649559632E+01
 -0.572226780071E+01 -0.380300306472E+02  0.628352695201E+01
  0.945455824478E+00 -0.369456998535E+02  0.616174774921E+01
  0.541870370977E+01 -0.349047333718E+02  0.560902919036E+01
  0.101057000000E+02 -0.321453000000E+02  0.375293774277E+01
 -0.431328682970E+02 -0.135049214778E+02  0.470202952487E+01
 -0.393927120745E+02 -0.236170299181E+02  0.817607489808E+01
 -0.325070941257E+02 -0.294554989835E+02  0.100451270885E+02
 -0.257285295769E+02 -0.331519312517E+02  0.112381709286E+02
 -0.190348047895E+02 -0.353984290500E+02  0.119735775675E+02
 -0.123637602580E+02 -0.365139313441E+02  0.123606412809E+02
 -0.569651720127E+01 -0.365760638514E+02  0.124310934113E+02
  0.982562870779E+00 -0.355630174515E+02  0.121834914888E+02
  0.551881080063E+01 -0.337376732736E+02  0.110680900016E+02
  0.102199000000E+02 -0.314291000000E+02  0.740320501680E+01
 -0.431449136509E+02 -0.126593275313E+02  0.691173039230E+01
 -0.394248256740E+02 -0.221088785500E+02  0.120281717491E+02
 -0.325374989874E+02 -0.275341633680E+02  0.147917123249E+02
 -0.257440348918E+02 -0.309739956775E+02  0.165568957850E+02
 -0.190344203266E+02 -0.330680419670E+02  0.176399650083E+02
 -0.123443475202E+02 -0.341211850365E+02  0.182085182345E+02
 -0.565801210385E+01 -0.342022727370E+02  0.183048322928E+02
  0.103674679948E+01 -0.332983481953E+02  0.179261288561E+02
  0.567517194330E+01 -0.318276889905E+02  0.162389648461E+02
  0.104080000000E+02 -0.302520000000E+02  0.108562538991E+02
 -0.431564932116E+02 -0.115030928834E+02  0.895534106603E+01
 -0.394648027636E+02 -0.200586305569E+02  0.155996397503E+02
 -0.325766770920E+02 -0.249334150942E+02  0.192065185841E+02
 -0.257647182228E+02 -0.280308330034E+02  0.215103577343E+02
 -0.190351376926E+02 -0.299201580716E+02  0.229176947454E+02
 -0.123216766299E+02 -0.308845368040E+02  0.236531576090E+02
 -0.561189100633E+01 -0.309803626807E+02  0.237654066032E+02
  0.109724629205E+01 -0.302115716750E+02  0.232538599846E+02
  0.587616994046E+01 -0.292292323127E+02  0.210004203015E+02
  0.106672000000E+02 -0.286383000000E+02  0.140335830778E+02
 -0.431726372378E+02 -0.100688636754E+02  0.107790280086E+02
 -0.395137785613E+02 -0.175229666847E+02  0.187996200654E+02
 -0.326207455945E+02 -0.217329074296E+02  0.231798146909E+02
 -0.257897833049E+02 -0.244172303251E+02  0.259735920272E+02
 -0.190370893171E+02 -0.260561101943E+02  0.276740593031E+02
 -0.122999339764E+02 -0.269057130837E+02  0.285584539384E+02
 -0.556352417576E+01 -0.270082163205E+02  0.286742869548E+02
  0.115756658109E+01 -0.263818506139E+02  0.280387312962E+02
  0.610517249868E+01 -0.260138593184E+02  0.252483837356E+02
  0.109932000000E+02 -0.266211000000E+02  0.168729332683E+02
 -0.432094682257E+02 -0.839334520520E+01  0.123399949468E+02
 -0.395652599961E+02 -0.145699594709E+02  0.215506062441E+02
 -0.326665117978E+02 -0.180260140581E+02  0.266031755435E+02
 -0.258161294595E+02 -0.202396030147E+02  0.298265101123E+02
 -0.190431620895E+02 -0.215909855495E+02  0.317801886631E+02
 -0.122804479781E+02 -0.223020786226E+02  0.327903554642E+02
 -0.552119566001E+01 -0.223982187388E+02  0.329017705739E+02
  0.121242484281E+01 -0.219155369296E+02  0.321550469285E+02
  0.637367481211E+01 -0.221187603847E+02  0.290066035009E+02
  0.115301000000E+02 -0.233341000000E+02  0.201128038619E+02
 -0.432463895409E+02 -0.651315607430E+01  0.136009529983E+02
 -0.396178799222E+02 -0.112738824232E+02  0.237755412688E+02
 -0.327098375469E+02 -0.139118935568E+02  0.293796845076E+02
 -0.258447319075E+02 -0.156106919568E+02  0.329575459095E+02
 -0.190507957293E+02 -0.166455269657E+02  0.351155858715E+02
 -0.122703561653E+02 -0.171976830163E+02  0.362284598294E+02
 -0.548575708357E+01 -0.172772306852E+02  0.363262248886E+02
  0.124868319699E+01 -0.169255219763E+02  0.354933154124E+02
  0.666220913810E+01 -0.177522945614E+02  0.320427602550E+02
  0.121654000000E+02 -0.195081000000E+02  0.225337188748E+02
 -0.432754988221E+02 -0.448081435023E+01  0.145231907560E+02
 -0.396623711227E+02 -0.771360924764E+01  0.254139092215E+02
 -0.327497478664E+02 -0.949450153884E+01  0.314279870064E+02
 -0.258713052776E+02 -0.106426446980E+02  0.352692325153E+02
 -0.190645484114E+02 -0.113435075595E+02  0.375798655817E+02
 -0.122662254427E+02 -0.117174448621E+02  0.387648428154E+02
 -0.547018355218E+01 -0.117743418329E+02  0.388513314512E+02
  0.127474609408E+01 -0.115393560763E+02  0.379460584664E+02
  0.695318513244E+01 -0.130244949799E+02  0.342762770495E+02
  0.128838000000E+02 -0.152798000000E+02  0.240692691490E+02
 -0.432962604754E+02 -0.234162566067E+01  0.150862426342E+02
 -0.396967274822E+02 -0.397835296134E+01  0.264166317533E+02
 -0.327813688094E+02 -0.487233588460E+01  0.326850388807E+02
 -0.258972783411E+02 -0.545238165802E+01  0.366883137197E+02
 -0.190796967529E+02 -0.580264447037E+01  0.390923520330E+02
 -0.122749984815E+02 -0.599094742485E+01  0.403205376163E+02
 -0.546741212058E+01 -0.601464978514E+01  0.403979470526E+02
  0.126432781318E+01 -0.589068219098E+01  0.394415370288E+02
  0.724417313880E+01 -0.804842606272E+01  0.356261898433E+02
  0.136697000000E+02 -0.107959000000E+02  0.246723722212E+02
 -0.433097952420E+02 -0.152843511208E+00  0.152755029647E+02
 -0.397185193996E+02 -0.150582968387E+00  0.267550783876E+02
 -0.328048453535E+02 -0.151509930725E+00  0.331104013271E+02
 -0.259181420150E+02 -0.147903233344E+00  0.371672307885E+02
 -0.191002956837E+02 -0.146268349053E+00  0.396045155887E+02
 -0.122900956472E+02 -0.138338986581E+00  0.408427246139E+02
 -0.548564396257E+01 -0.129534165687E+00  0.409185256145E+02
  0.125977604525E+01 -0.112423154721E+00  0.399342428391E+02
  0.750722367926E+01 -0.292592481513E+01  0.360510200490E+02
  0.145088000000E+02 -0.620730000000E+01  0.242549464839E+02
 -0.433161279117E+02  0.203919942084E+01  0.150863523649E+02
 -0.397282503131E+02  0.367367089267E+01  0.264193814846E+02
 -0.328176215233E+02  0.457256758198E+01  0.326883552009E+02
 -0.259358313429E+02  0.515339470162E+01  0.366928815652E+02
 -0.191215340004E+02  0.551402079542E+01  0.390947495345E+02
 -0.123180095328E+02  0.570931796857E+01  0.403219182964E+02
 -0.551330976513E+01  0.576149050247E+01  0.403850684705E+02
  0.121425914460E+01  0.565626660226E+01  0.394277207241E+02
  0.701123483180E+01  0.327302930412E+01  0.362809795563E+02
  0.131831000000E+02  0.454110000000E+00  0.274423164314E+02
 -0.433144141410E+02  0.417521337106E+01  0.145244799767E+02
 -0.397253150808E+02  0.741236622485E+01  0.254177234224E+02
 -0.328203414918E+02  0.919207551627E+01  0.314349958884E+02
 -0.259493866767E+02  0.103470193327E+02  0.352779615110E+02
 -0.191447462149E+02  0.110512723315E+02  0.375846632624E+02
 -0.123557881116E+02  0.114404522864E+02  0.387695041361E+02
 -0.555641178621E+01  0.115124991968E+02  0.388284633432E+02
  0.116105811433E+01  0.113140007111E+02  0.379229153220E+02
  0.646424459168E+01  0.936171014880E+01  0.352926337384E+02
  0.118241000000E+02  0.740807000000E+01  0.283313132608E+02
 -0.433040900214E+02  0.621008371732E+01  0.136013408666E+02
 -0.397095662576E+02  0.109701908406E+02  0.237825290228E+02
 -0.328149456429E+02  0.136120526161E+02  0.293888326728E+02
 -0.259575290381E+02  0.153132856034E+02  0.329697290568E+02
 -0.191723370779E+02  0.163552353097E+02  0.351244269026E+02
 -0.123974793091E+02  0.169180339868E+02  0.362340118304E+02
 -0.562086943505E+01  0.170130155047E+02  0.363062411376E+02
  0.109316733976E+01  0.166980572746E+02  0.354547287033E+02
  0.589907118915E+01  0.151967843314E+02  0.331314270961E+02
  0.105170000000E+02  0.141900000000E+02  0.272436995428E+02
 -0.432835453499E+02  0.808790983084E+01  0.123423182242E+02
 -0.396847495609E+02  0.142685770872E+02  0.215568011325E+02
 -0.328016452227E+02  0.177248617574E+02  0.266151736937E+02
 -0.259639428089E+02  0.199438301108E+02  0.298404415807E+02
 -0.191985574884E+02  0.212987461572E+02  0.317927584764E+02
 -0.124477220854E+02  0.220211672769E+02  0.327979939530E+02
 -0.569292896324E+01  0.221277235058E+02  0.328879764939E+02
  0.101316063809E+01  0.216767733659E+02  0.321142763433E+02
  0.535651882234E+01  0.205919247523E+02  0.298593828445E+02
  0.933792000000E+01  0.203701000000E+02  0.243081762067E+02
 -0.432623054658E+02  0.976489937856E+01  0.107798191920E+02
 -0.396568493326E+02  0.172200953808E+02  0.188078391819E+02
 -0.327843141975E+02  0.214332482420E+02  0.231918604172E+02
 -0.259660379044E+02  0.241200308403E+02  0.259888773152E+02
 -0.192261419984E+02  0.257634606042E+02  0.276887659094E+02
 -0.124975430902E+02  0.266190968461E+02  0.285678702351E+02
 -0.577293259800E+01  0.267294013378E+02  0.286691557310E+02
  0.930419809220E+00  0.261199341372E+02  0.280031955991E+02
  0.485408149563E+01  0.253460700851E+02  0.256023350094E+02
  0.835459000000E+01  0.255615000000E+02  0.196356344113E+02
 -0.432587433146E+02  0.111977202585E+02  0.895748772240E+01
 -0.396289693721E+02  0.197567989302E+02  0.156062485465E+02
 -0.327630181944E+02  0.246330451340E+02  0.192187083210E+02
 -0.259670629931E+02  0.277333698396E+02  0.215248773019E+02
 -0.192495669920E+02  0.296244470258E+02  0.229326131200E+02
 -0.125482096024E+02  0.305907580872E+02  0.236643022524E+02
 -0.584783659047E+01  0.306878074653E+02  0.237647096459E+02
  0.842683961391E+00  0.299156251561E+02  0.232354843664E+02
  0.449614922831E+01  0.287355742192E+02  0.213121650959E+02
  0.790416000000E+01  0.279493000000E+02  0.163546253061E+02
 -0.432580732351E+02  0.123543634905E+02  0.691278947276E+01
 -0.396051369972E+02  0.218063311312E+02  0.120345678710E+02
 -0.327429714628E+02  0.272340080242E+02  0.148016677413E+02
 -0.259656903086E+02  0.306749184488E+02  0.165697214299E+02
 -0.192704816556E+02  0.327686652864E+02  0.176529719071E+02
 -0.125913979646E+02  0.338185260591E+02  0.182191563318E+02
 -0.591613947326E+01  0.338904230284E+02  0.183066077299E+02
  0.761811960418E+00  0.329649450135E+02  0.179224877903E+02
  0.418891041987E+01  0.314641060990E+02  0.164924285222E+02
  0.754452000000E+01  0.298596000000E+02  0.126580651051E+02
 -0.432536068753E+02  0.131994014797E+02  0.470330462025E+01
 -0.395853021457E+02  0.233146204533E+02  0.818026669755E+01
 -0.327258489408E+02  0.291546940463E+02  0.100526493070E+02
 -0.259648872241E+02  0.328515849841E+02  0.112473894907E+02
 -0.192852272720E+02  0.350948060496E+02  0.119832841300E+02
 -0.126262110452E+02  0.362020371536E+02  0.123688457264E+02
 -0.596876446482E+01  0.362444901844E+02  0.124328202951E+02
  0.692322676213E+00  0.351924909389E+02  0.121879580230E+02
  0.395878010567E+01  0.334618329848E+02  0.112450253960E+02
  0.728257000000E+01  0.312532000000E+02  0.863519590478E+01
 -0.432487355439E+02  0.137139238265E+02  0.237933861007E+01
 -0.395712322177E+02  0.242368840234E+02  0.413675727066E+01
 -0.327147178182E+02  0.303339369091E+02  0.508174403044E+01
 -0.259637424032E+02  0.341887012354E+02  0.568362706570E+01
 -0.192949270329E+02  0.365241957244E+02  0.605557667857E+01
 -0.126476272207E+02  0.376641276229E+02  0.625090909434E+01
 -0.600303728323E+01  0.376831549670E+02  0.628444184309E+01
  0.647518991109E+00  0.365477368964E+02  0.616623730873E+01
  0.381478161484E+01  0.346775727356E+02  0.570001579848E+01
  0.712334000000E+01  0.321011000000E+02  0.437741298119E+01
 -0.432460847469E+02  0.138859302488E+02  0.000000000000E+00
 -0.395662815827E+02  0.245473071760E+02  0.000000000000E+00
 -0.327105899421E+02  0.307314850438E+02  0.000000000000E+00
 -0.259635996903E+02  0.346398001886E+02  0.000000000000E+00
 -0.192978681245E+02  0.370063129491E+02  0.000000000000E+00
 -0.126553363971E+02  0.381569931950E+02  0.000000000000E+00
 -0.601437226333E+01  0.381671117909E+02  0.000000000000E+00
  0.631420761453E+00  0.370021926148E+02  0.000000000000E+00
  0.376630530958E+01  0.350859754093E+02  0.000000000000E+00
  0.706992000000E+01  0.323857000000E+02  0.000000000000E+00
 -0.445203595876E+02 -0.609190626692E+01  0.000000000000E+00
 -0.446999318103E+02 -0.489666875386E+01  0.000000000000E+00
 -0.448503888165E+02 -0.370837721920E+01  0.000000000000E+00
 -0.449548079769E+02 -0.252280009065E+01  0.000000000000E+00
 -0.449972240128E+02 -0.134039134740E+01  0.000000000000E+00
 -0.449915117760E+02 -0.152313077321E+00  0.000000000000E+00
 -0.450116675421E+02  0.103393167015E+01  0.000000000000E+00
 -0.449843582213E+02  0.221702370382E+01  0.000000000000E+00
 -0.448925294066E+02  0.340122750318E+01  0.000000000000E+00
 -0.447539528940E+02  0.458961967820E+01  0.000000000000E+00
 -0.445848694750E+02  0.578398113340E+01  0.000000000000E+00
 -0.445192491445E+02 -0.602077383094E+01  0.102756930631E+01
 -0.446847602244E+02 -0.486760401999E+01  0.114167488142E+01
 -0.448252123548E+02 -0.370304272692E+01  0.122713553234E+01
 -0.449303643523E+02 -0.252768791765E+01  0.128105345648E+01
 -0.449858613793E+02 -0.134193840104E+01  0.130739896370E+01
 -0.450001982319E+02 -0.152402183987E+00  0.130679433193E+01
 -0.450004533567E+02  0.103556168708E+01  0.130711748156E+01
 -0.449597024191E+02  0.222185488603E+01  0.128071871803E+01
 -0.448670337001E+02  0.339600776071E+01  0.122681776209E+01
 -0.447382148912E+02  0.456049757416E+01  0.114147927445E+01
 -0.445829057691E+02  0.571287428847E+01  0.102722085155E+01
 -0.445162051738E+02 -0.580846681472E+01  0.202560184850E+01
 -0.446525279554E+02 -0.472767630445E+01  0.225474072599E+01
 -0.447717876697E+02 -0.361573252852E+01  0.242852486846E+01
 -0.448672327816E+02 -0.247413772405E+01  0.254518086015E+01
 -0.449347475787E+02 -0.131697529190E+01  0.260352610956E+01
 -0.449631097864E+02 -0.152474040728E+00  0.259715176384E+01
 -0.449487994524E+02  0.101078160067E+01  0.260292325140E+01
 -0.448950369787E+02  0.216825777917E+01  0.254421198015E+01
 -0.448116556300E+02  0.330888546929E+01  0.242728189807E+01
 -0.447036897255E+02  0.442066826255E+01  0.225363493920E+01
 -0.445773534084E+02  0.550072653757E+01  0.202482271082E+01
 -0.445111083441E+02 -0.545851994410E+01  0.297206473363E+01
 -0.446094260364E+02 -0.447724636954E+01  0.332752326401E+01
 -0.446990375013E+02 -0.344163116465E+01  0.360345987674E+01
 -0.447798790386E+02 -0.236672181670E+01  0.379370236490E+01
 -0.448388897584E+02 -0.126657704206E+01  0.388762872063E+01
 -0.448691846179E+02 -0.152470416754E+00  0.389214135430E+01
 -0.448517605783E+02  0.960566534423E+00  0.388671155453E+01
 -0.448054502646E+02  0.206099695411E+01  0.379239796960E+01
 -0.447358170401E+02  0.313494773739E+01  0.360177489831E+01
 -0.446569175360E+02  0.417042347391E+01  0.332593144897E+01
 -0.445681657549E+02  0.515112524345E+01  0.297037114983E+01
 -0.445063626608E+02 -0.497697116739E+01  0.384447691978E+01
 -0.445618303207E+02 -0.411835393734E+01  0.434330507285E+01
 -0.446211150752E+02 -0.318964852132E+01  0.473658338488E+01
 -0.446734647060E+02 -0.220780596586E+01  0.501024073760E+01
 -0.447130502601E+02 -0.118951095411E+01  0.516229421136E+01
 -0.447339620917E+02 -0.152425007460E+00  0.519299987739E+01
 -0.447244999075E+02  0.883707198538E+00  0.516144461539E+01
 -0.446963086051E+02  0.190226520244E+01  0.500880314441E+01
 -0.446542270830E+02  0.288331712610E+01  0.473478176165E+01
 -0.446045538605E+02  0.381173941334E+01  0.434150541107E+01
 -0.445578432038E+02  0.466984225441E+01  0.384279148327E+01
 -0.445077080442E+02 -0.437408362856E+01  0.462264633254E+01
 -0.445199059875E+02 -0.366304205148E+01  0.528229795852E+01
 -0.445371073395E+02 -0.286491487447E+01  0.580968951731E+01
 -0.445531686845E+02 -0.199962974599E+01  0.619211537215E+01
 -0.445653634102E+02 -0.108712882110E+01  0.642510222524E+01
 -0.445730098890E+02 -0.153118721253E+00  0.650244236524E+01
 -0.445752688258E+02  0.782846716208E+00  0.642383817925E+01
 -0.445728800721E+02  0.169331844438E+01  0.619153385865E+01
 -0.445660601883E+02  0.255953508451E+01  0.580729635396E+01
 -0.445571863854E+02  0.335648488417E+01  0.528081743182E+01
 -0.445524967903E+02  0.406747026388E+01  0.462059644473E+01
CELLS       1130     10170
8      0      9     10      1     99    108    109    100
8     99    108    109    100    198    207    208    199
8    198    207    208    199    297    306    307    298
8    297    306    307    298    396    405    406    397
8    396    405    406    397    495    504    505    496
8      9     18     19     10    108    117    118    109
8    108    117    118    109    207    216    217    208
8    207    216    217    208    306    315    316    307
8    306    315    316    307    405    414    415    406
8    405    414    415    406    504    513    514    505
8     18     27     28     19    117    126    127    118
8    117    126    127    118    216    225    226    217
8    216    225    226    217    315    324    325    316
8    315    324    325    316    414    423    424    415
8    414    423    424    415    513    522    523    514
8     27     36     37     28    126    135    136    127
8    126    135    136    127    225    234    235    226
8    225    234    235    226    324    333    334    325
8    324    333    334    325    423    432    433    424
8    423    432    433    424    522    531    532    523
8     36     45     46     37    135    144    145    136
8    135    144    145    136    234    243    244    235
8    234    243    244    235    333    342    343    334
8    333    342    343    334    432    441    442    433
8    432    441    442    433    531    540    541    532
8     45     54     55     46    144    153    154    145
8    144    153    154    145    243    252    253    244
8    243    252    253    244    342    351    352    343
8    342    351    352    343    441    450    451    442
8    441    450    451    442    540    549    550    541
8     54     63     64     55    153    162    163    154
8    153    162    163    154    252    261    262    253
8    252    261    262    253    351    360    361    352
8    351    360    361    352    450    459    460    451
8    450    459    460    451    549    558    559    550
8     63     72     73     64    162    171    172    163
8    162    171    172    163    261    270    271    262
8    261    270    271    262    360    369    370    361
8    360    369    370    361    459    468    469    460
8    459    468    469    460    558    567    568    559
8     72     81     82     73    171    180    181    172
8    171    180    181    172    270    279    280    271
8    270    279    280    271    369    378    379    370
8    369    378    379    370    468    477    478    469
8    468    477    478    469    567    576    577    568
8     81     90     91     82    180    189    190    181
8    180    189    190    181    279    288    289    280
8    279    288    289    280    378    387    388    379
8    378    387    388    379    477    486    487    478
8    477    486    487    478    576    585    586    577
8      1     10     11      2    100    109    110    101
8    100    109    110    101    199    208    209    200
8    199    208    209    200    298    307    308    299
8    298    307    308    299    397    406    407    398
8    397    406    407    398    496    505    506    497
8     10     19     20     11    109    118    119    110
8    109    118    119    110    208    217    218    209
8    208    217    218    209    307    316    317    308
8    307    316    317    308    406    415    416    407
8    406    415    416    407    505    514    515    506
8     19     28     29     20    118    127    128    119
8    118    127    128    119    217    226    227    218
8    217    226    227    218    316    325    326    317
8    316    325    326    317    415    424    425    416
8    415    424    425    416    514    523    524    515
8     28     37     38     29    127    136    137    128
8    127    136    137    128    226    235    236    227
8    226    235    236    227    325    334    335    326
8    325    334    335    326    424    433    434    425
8    424    433    434    425    523    532    533    524
8     37     46     47     38    136    145    146    137
8    136    145    146    137    235    244    245    236
8    235    244    245    236    334    343    344    335
8    334    343    344    335    433    442    443    434
8    433    442    443    434    532    541    542    533
8     46     55     56     47    145    154    155    146
8    145    154    155    146    244    253    254    245
8    244    253    254    245    343    352    353    344
8    343    352    353    344    442    451    452    443
8    442    451    452    443    541    550    551    542
8     55     64     65     56    154    163    164    155
8    154    163    164    155    253    262    263    254
8    253    262    263    254    352    361    362    353
8    352    361    362    353    451    460    461    452
8    451    460    461    452    550    559    560    551
8     64     73     74     65    163    172    173    164
8    163    172    173    164    262    271    272    263
8    262    271    272    263    361    370    371    362
8    361    370    371    362    460    469    470    461
8    460    469    470    461    559    568    569    560
8     73     82     83     74    172    181    182    173
8    172    181    182    173    271    280    281    272
8    271    280    281    272    370    379    380    371
8    370    379    380    371    469    478    479    470
8    469    478    479    470    568    577    578    569
8     82     91     92     83    181    190    191    182
8    181    190    191    182    280    289    290    281
8    280    289    290    281    379    388    389    380
8    379    388    389    380    478    487    488    479
8    478    487    488    479    577    586    587    578
8      2     11     12      3    101    110    111    102
8    101    110    111    102    200    209    210    201
8    200    209    210    201    299    308    309    300
8    299    308    309    300    398    407    408    399
8    398    407    408    399    497    506    507    498
8     11     20     21     12    110    119    120    111
8    110    119    120    111    209    218    219    210
8    209    218    219    210    308    317    318    309
8    308    317    318    309    407    416    417    408
8    407    416    417    408    506    515    516    507
8     20     29     30     21    119    128    129    120
8    119    128    129    120    218    227    228    219
8    218    227    228    219    317    326    327    318
8    317    326    327    318    416    425    426    417
8    416    425    426    417    515    524    525    516
8     29     38     39     30    128    137    138    129
8    128    137    138    129    227    236    237    228
8    227    236    237    228    326    335    336    327
8    326    335    336    327    425    434    435    426
8    425    434    435    426    524    533    534    525
8     38     47     48     39    137    146    147    138
8    137    146    147    138    236    245    246    237
8    236    245    246    237    335    344    345    336
8    335    344    345    336    434    443    444    435
8    434    443    444    435    533    542    543    534
8     47     56     57     48    146    155    156    147
8    146    155    156    147    245    254    255    246
8    245    254    255    246    344    353    354    345
8    344    353    354    345    443    452    453    444
8    443    452    453    444    542    551    552    543
8     56     65     66     57    155    164    165    156
8    155    164    165    156    254    263    264    255
8    254    263    264    255    353    362    363    354
8    353    362    363    354    452    461    462    453
8    452    461    462    453    551    560    561    552
8     65     74     75     66    164    173    174    165
8    164    173    174    165    263    272    273    264
8    263    272    273    264    362    371    372    363
8    362    371    372    363    461    470    471    462
8    461    470    471    462    560    569    570    561
8     74     83     84     75    173    182    183    174
8    173    182    183    174    272    281    282    273
8    272    281    282    273    371    380    381    372
8    371    380    381    372    470    479    480    471
8    470    479    480    471    569    578    579    570
8     83     92     93     84    182    191    192    183
8    182    191    192    183    281    290    291    282
8    281    290    291    282    380    389    390    381
8    380    389    390    381    479    488    489    480
8    479    488    489    480    578    587    588    579
8      3     12     13      4    102    111    112    103
8    102    111    112    103    201    210    211    202
8    201    210    211    202    300    309    310    301
8    300    309    310    301    399    408    409    400
8    399    408    409    400    498    507    508    499
8     12     21     22     13    111    120    121    112
8    111    120    121    112    210    219    220    211
8    210    219    220    211    309    318    319    310
8    309    318    319    310    408    417    418    409
8    408    417    418    409    507    516    517    508
8     21     30     31     22    120    129    130    121
8    120    129    130    121    219    228    229    220
8    219    228    229    220    318    327    328    319
8    318    327    328    319    417    426    427    418
8    417    426    427    418    516    525    526    517
8     30     39     40     31    129    138    139    130
8    129    138    139    130    228    237    238    229
8    228    237    238    229    327    336    337    328
8    327    336    337    328    426    435    436    427
8    426    435    436    427    525    534    535    526
8     39     48     49     40    138    147    148    139
8    138    147    148    139    237    246    247    238
8    237    246    247    238    336    345    346    337
8    336    345    346    337    435    444    445    436
8    435    444    445    436    534    543    544    535
8     48     57     58     49    147    156    157    148
8    147    156    157    148    246    255    256    247
8    246    255    256    247    345    354    355    346
8    345    354    355    346    444    453    454    445
8    444    453    454    445    543    552    553    544
8     57     66     67     58    156    165    166    157
8    156    165    166    157    255    264    265    256
8    255    264    265    256    354    363    364    355
8    354    363    364    355    453    462    463    454
8    453    462    463    454    552    561    562    553
8     66     75     76     67    165    174    175    166
8    165    174    175    166    264    273    274    265
8    264    273    274    265    363    372    373    364
8    363    372    373    364    462    471    472    463
8    462    471    472    463    561    570    571    562
8     75     84     85     76    174    183    184    175
8    174    183    184    175    273    282    283    274
8    273    282    283    274    372    381    382    373
8    372    381    382    373    471    480    481    472
8    471    480    481    472    570    579    580    571
8     84     93     94     85    183    192    193    184
8    183    192    193    184    282    291    292    283
8    282    291    292    283    381    390    391    382
8    381    390    391    382    480    489    490    481
8    480    489    490    481    579    588    589    580
8      4     13     14      5    103    112    113    104
8    103    112    113    104    202    211    212    203
8    202    211    212    203    301    310    311    302
8    301    310    311    302    400    409    410    401
8    400    409    410    401    499    508    509    500
8     13     22     23     14    112    121    122    113
8    112    121    122    113    211    220    221    212
8    211    220    221    212    310    319    320    311
8    310    319    320    311    409    418    419    410
8    409    418    419    410    508    517    518    509
8     22     31     32     23    121    130    131    122
8    121    130    131    122    220    229    230    221
8    220    229    230    221    319    328    329    320
8    319    328    329    320    418    427    428    419
8    418    427    428    419    517    526    527    518
8     31     40     41     32    130    139    140    131
8    130    139    140    131    229    238    239    230
8    229    238    239    230    328    337    338    329
8    328    337    338    329    427    436    437    428
8    427    436    437    428    526    535    536    527
8     40     49     50     41    139    148    149    140
8    139    148    149    140    238    247    248    239
8    238    247    248    239    337    346    347    338
8    337    346    347    338    436    445    446    437
8    436    445    446    437    535    544    545    536
8     49     58     59     50    148    157    158    149
8    148    157    158    149    247    256    257    248
8    247    256    257    248    346    355    356    347
8    346    355    356    347    445    454    455    446
8    445    454    455    446    544    553    554    545
8     58     67     68     59    157    166    167    158
8    157    166    167    158    256    265    266    257
8    256    265    266    257    355    364    365    356
8    355    364    365    356    454    463    464    455
8    454    463    464    455    553    562    563    554
8     67     76     77     68    166    175    176    167
8    166    175    176    167    265    274    275    266
8    265    274    275    266    364    373    374    365
8    364    373    374    365    463    472    473    464
8    463    472    473    464    562    571    572    563
8     76     85     86     77    175    184    185    176
8    175    184    185    176    274    283    284    275
8    274    283    284    275    373    382    383    374
8    373    382    383    374    472    481    482    473
8    472    481    482    473    571    580    581    572
8     85     94     95     86    184    193    194    185
8    184    193    194    185    283    292    293    284
8    283    292    293    284    382    391    392    383
8    382    391    392    383    481    490    491    482
8    481    490    491    482    580    589    590    581
8      5     14     15      6    104    113    114    105
8    104    113    114    105    203    212    213    204
8    203    212    213    204    302    311    312    303
8    302    311    312    303    401    410    411    402
8    401    410    411    402    500    509    510    501
8     14     23     24     15    113    122    123    114
8    113    122    123    114    212    221    222    213
8    212    221    222    213    311    320    321    312
8    311    320    321    312    410    419    420    411
8    410    419    420    411    509    518    519    510
8     23     32     33     24    122    131    132    123
8    122    131    132    123    221    230    231    222
8    221    230    231    222    320    329    330    321
8    320    329    330    321    419    428    429    420
8    419    428    429    420    518    527    528    519
8     32     41     42     33    131    140    141    132
8    131    140    141    132    230    239    240    231
8    230    239    240    231    329    338    339    330
8    329    338    339    330    428    437    438    429
8    428    437    438    429    527    536    537    528
8     41     50     51     42    140    149    150    141
8    140    149    150    141    239    248    249    240
8    239    248    249    240    338    347    348    339
8    338    347    348    339    437    446    447    438
8    437    446    447    438    536    545    546    537
8     50     59     60     51    149    158    159    150
8    149    158    159    150    248    257    258    249
8    248    257    258    249    347    356    357    348
8    347    356    357    348    446    455    456    447
8    446    455    456    447    545    554    555    546
8     59     68     69     60    158    167    168    159
8    158    167    168    159    257    266    267    258
8    257    266    267    258    356    365    366    357
8    356    365    366    357    455    464    465    456
8    455    464    465    456    554    563    564    555
8     68     77     78     69    167    176    177    168
8    167    176    177    168    266    275    276    267
8    266    275    276    267    365    374    375    366
8    365    374    375    366    464    473    474    465
8    464    473    474    465    563    572    573    564
8     77     86     87     78    176    185    186    177
8    176    185    186    177    275    284    285    276
8    275    284    285    276    374    383    384    375
8    374    383    384    375    473    482    483    474
8    473    482    483    474    572    581    582    573
8     86     95     96     87    185    194    195    186
8    185    194    195    186    284    293    294    285
8    284    293    294    285    383    392    393    384
8    383    392    393    384    482    491    492    483
8    482    491    492    483    581    590    591    582
8      6     15     16      7    105    114    115    106
8    105    114    115    106    204    213    214    205
8    204    213    214    205    303    312    313    304
8    303    312    313    304    402    411    412    403
8    402    411    412    403    501    510    511    502
8     15     24     25     16    114    123    124    115
8    114    123    124    115    213    222    223    214
8    213    222    223    214    312    321    322    313
8    312    321    322    313    411    420    421    412
8    411    420    421    412    510    519    520    511
8     24     33     34     25    123    132    133    124
8    123    132    133    124    222    231    232    223
8    222    231    232    223    321    330    331    322
8    321    330    331    322    420    429    430    421
8    420    429    430    421    519    528    529    520
8     33     42     43     34    132    141    142    133
8    132    141    142    133    231    240    241    232
8    231    240    241    232    330    339    340    331
8    330    339    340    331    429    438    439    430
8    429    438    439    430    528    537    538    529
8     42     51     52     43    141    150    151    142
8    141    150    151    142    240    249    250    241
8    240    249    250    241    339    348    349    340
8    339    348    349    340    438    447    448    439
8    438    447    448    439    537    546    547    538
8     51     60     61     52    150    159    160    151
8    150    159    160    151    249    258    259    250
8    249    258    259    250    348    357    358    349
8    348    357    358    349    447    456    457    448
8    447    456    457    448    546    555    556    547
8     60     69     70     61    159    168    169    160
8    159    168    169    160    258    267    268    259
8    258    267    268    259    357    366    367    358
8    357    366    367    358    456    465    466    457
8    456    465    466    457    555    564    565    556
8     69     78     79     70    168    177    178    169
8    168    177    178    169    267    276    277    268
8    267    276    277    268    366    375    376    367
8    366    375    376    367    465    474    475    466
8    465    474    475    466    564    573    574    565
8     78     87     88     79    177    186    187    178
8    177    186    187    178    276    285    286    277
8    276    285    286    277    375    384    385    376
8    375    384    385    376    474    483    484    475
8    474    483    484    475    573    582    583    574
8     87     96     97     88    186    195    196    187
8    186    195    196    187    285    294    295    286
8    285    294    295    286    384    393    394    385
8    384    393    394    385    483    492    493    484
8    483    492    493    484    582    591    592    583
8      7     16     17      8    106    115    116    107
8    106    115    116    107    205    214    215    206
8    205    214    215    206    304    313    314    305
8    304    313    314    305    403    412    413    404
8    403    412    413    404    502    511    512    503
8     16     25     26     17    115    124    125    116
8    115    124    125    116    214    223    224    215
8    214    223    224    215    313    322    323    314
8    313    322    323    314    412    421    422    413
8    412    421    422    413    511    520    521    512
8     25     34     35     26    124    133    134    125
8    124    133    134    125    223    232    233    224
8    223    232    233    224    322    331    332    323
8    322    331    332    323    421    430    431    422
8    421    430    431    422    520    529    530    521
8     34     43     44     35    133    142    143    134
8    133    142    143    134    232    241    242    233
8    232    241    242    233    331    340    341    332
8    331    340    341    332    430    439    440    431
8    430    439    440    431    529    538    539    530
8     43     52     53     44    142    151    152    143
8    142    151    152    143    241    250    251    242
8    241    250    251    242    340    349    350    341
8    340    349    350    341    439    448    449    440
8    439    448    449    440    538    547    548    539
8     52     61     62     53    151    160    161    152
8    151    160    161    152    250    259    260    251
8    250    259    260    251    349    358    359    350
8    349    358    359    350    448    457    458    449
8    448    457    458    449    547    556    557    548
8     61     70     71     62    160    169    170    161
8    160    169    170    161    259    268    269    260
8    259    268    269    260    358    367    368    359
8    358    367    368    359    457    466    467    458
8    457    466    467    458    556    565    566    557
8     70     79     80     71    169    178    179    170
8    169    178    179    170    268    277    278    269
8    268    277    278    269    367    376    377    368
8    367    376    377    368    466    475    476    467
8    466    475    476    467    565    574    575    566
8     79     88     89     80    178    187    188    179
8    178    187    188    179    277    286    287    278
8    277    286    287    278    376    385    386    377
8    376    385    386    377    475    484    485    476
8    475    484    485    476    574    583    584    575
8     88     97     98     89    187    196    197    188
8    187    196    197    188    286    295    296    287
8    286    295    296    287    385    394    395    386
8    385    394    395    386    484    493    494    485
8    484    493    494    485    583    592    593    584
8     53     62    605    594    152    161    671    660
8    152    161    671    660    251    260    737    726
8    251    260    737    726    350    359    803    792
8    350    359    803    792    449    458    869    858
8    449    458    869    858    548    557    935    924
8     62     71    616    605    161    170    682    671
8    161    170    682    671    260    269    748    737
8    260    269    748    737    359    368    814    803
8    359    368    814    803    458    467    880    869
8    458    467    880    869    557    566    946    935
8     71     80    627    616    170    179    693    682
8    170    179    693    682    269    278    759    748
8    269    278    759    748    368    377    825    814
8    368    377    825    814    467    476    891    880
8    467    476    891    880    566    575    957    946
8     80     89    638    627    179    188    704    693
8    179    188    704    693    278    287    770    759
8    278    287    770    759    377    386    836    825
8    377    386    836    825    476    485    902    891
8    476    485    902    891    575    584    968    957
8     89     98    649    638    188    197    715    704
8    188    197    715    704    287    296    781    770
8    287    296    781    770    386    395    847    836
8    386    395    847    836    485    494    913    902
8    485    494    913    902    584    593    979    968
8      8     17   1025   1034    107    116   1079   1088
8    107    116   1079   1088    206    215   1133   1142
8    206    215   1133   1142    305    314   1187   1196
8    305    314   1187   1196    404    413   1241   1250
8    404    413   1241   1250    503    512   1295   1304
8     17     26   1016   1025    116    125   1070   1079
8    116    125   1070   1079    215    224   1124   1133
8    215    224   1124   1133    314    323   1178   1187
8    314    323   1178   1187    413    422   1232   1241
8    413    422   1232   1241    512    521   1286   1295
8     26     35   1007   1016    125    134   1061   1070
8    125    134   1061   1070    224    233   1115   1124
8    224    233   1115   1124    323    332   1169   1178
8    323    332   1169   1178    422    431   1223   1232
8    422    431   1223   1232    521    530   1277   1286
8     35     44    998   1007    134    143   1052   1061
8    134    143   1052   1061    233    242   1106   1115
8    233    242   1106   1115    332    341   1160   1169
8    332    341   1160   1169    431    440   1214   1223
8    431    440   1214   1223    530    539   1268   1277
8     44     53    594    998    143    152   1043   1052
8    143    152   1043   1052    242    251   1097   1106
8    242    251   1097   1106    341    350   1151   1160
8    341    350   1151   1160    440    449   1205   1214
8    440    449   1205   1214    539    548   1259   1268
8    594    605    606    595    660    671    672    661
8    660    671    672    661    726    737    738    727
8    726    737    738    727    792    803    804    793
8    792    803    804    793    858    869    870    859
8    858    869    870    859    924    935    936    925
8    605    616    617    606    671    682    683    672
8    671    682    683    672    737    748    749    738
8    737    748    749    738    803    814    815    804
8    803    814    815    804    869    880    881    870
8    869    880    881    870    935    946    947    936
8    616    627    628    617    682    693    694    683
8    682    693    694    683    748    759    760    749
8    748    759    760    749    814    825    826    815
8    814    825    826    815    880    891    892    881
8    880    891    892    881    946    957    958    947
8    627    638    639    628    693    704    705    694
8    693    704    705    694    759    770    771    760
8    759    770    771    760    825    836    837    826
8    825    836    837    826    891    902    903    892
8    891    902    903    892    957    968    969    958
8    638    649    650    639    704    715    716    705
8    704    715    716    705    770    781    782    771
8    770    781    782    771    836    847    848    837
8    836    847    848    837    902    913    914    903
8    902    913    914    903    968    979    980    969
8    595    606    607    596    661    672    673    662
8    661    672    673    662    727    738    739    728
8    727    738    739    728    793    804    805    794
8    793    804    805    794    859    870    871    860
8    859    870    871    860    925    936    937    926
8    606    617    618    607    672    683    684    673
8    672    683    684    673    738    749    750    739
8    738    749    750    739    804    815    816    805
8    804    815    816    805    870    881    882    871
8    870    881    882    871    936    947    948    937
8    617    628    629    618    683    694    695    684
8    683    694    695    684    749    760    761    750
8    749    760    761    750    815    826    827    816
8    815    826    827    816    881    892    893    882
8    881    892    893    882    947    958    959    948
8    628    639    640    629    694    705    706    695
8    694    705    706    695    760    771    772    761
8    760    771    772    761    826    837    838    827
8    826    837    838    827    892    903    904    893
8    892    903    904    893    958    969    970    959
8    639    650    651    640    705    716    717    706
8    705    716    717    706    771    782    783    772
8    771    782    783    772    837    848    849    838
8    837    848    849    838    903    914    915    904
8    903    914    915    904    969    980    981    970
8    596    607    608    597    662    673    674    663
8    662    673    674    663    728    739    740    729
8    728    739    740    729    794    805    806    795
8    794    805    806    795    860    871    872    861
8    860    871    872    861    926    937    938    927
8    607    618    619    608    673    684    685    674
8    673    684    685    674    739    750    751    740
8    739    750    751    740    805    816    817    806
8    805    816    817    806    871    882    883    872
8    871    882    883    872    937    948    949    938
8    618    629    630    619    684    695    696    685
8    684    695    696    685    750    761    762    751
8    750    761    762    751    816    827    828    817
8    816    827    828    817    882    893    894    883
8    882    893    894    883    948    959    960    949
8    629    640    641    630    695    706    707    696
8    695    706    707    696    761    772    773    762
8    761    772    773    762    827    838    839    828
8    827    838    839    828    893    904    905    894
8    893    904    905    894    959    970    971    960
8    640    651    652    641    706    717    718    707
8    706    717    718    707    772    783    784    773
8    772    783    784    773    838    849    850    839
8    838    849    850    839    904    915    916    905
8    904    915    916    905    970    981    982    971
8    597    608    609    598    663    674    675    664
8    663    674    675    664    729    740    741    730
8    729    740    741    730    795    806    807    796
8    795    806    807    796    861    872    873    862
8    861    872    873    862    927    938    939    928
8    608    619    620    609    674    685    686    675
8    674    685    686    675    740    751    752    741
8    740    751    752    741    806    817    818    807
8    806    817    818    807    872    883    884    873
8    872    883    884    873    938    949    950    939
8    619    630    631    620    685    696    697    686
8    685    696    697    686    751    762    763    752
8    751    762    763    752    817    828    829    818
8    817    828    829    818    883    894    895    884
8    883    894    895    884    949    960    961    950
8    630    641    642    631    696    707    708    697
8    696    707    708    697    762    773    774    763
8    762    773    774    763    828    839    840    829
8    828    839    840    829    894    905    906    895
8    894    905    906    895    960    971    972    961
8    641    652    653    642    707    718    719    708
8    707    718    719    708    773    784    785    774
8    773    784    785    774    839    850    851    840
8    839    850    851    840    905    916    917    906
8    905    916    917    906    971    982    983    972
8    598    609    610    599    664    675    676    665
8    664    675    676    665    730    741    742    731
8    730    741    742    731    796    807    808    797
8    796    807    808    797    862    873    874    863
8    862    873    874    863    928    939    940    929
8    609    620    621    610    675    686    687    676
8    675    686    687    676    741    752    753    742
8    741    752    753    742    807    818    819    808
8    807    818    819    808    873    884    885    874
8    873    884    885    874    939    950    951    940
8    620    631    632    621    686    697    698    687
8    686    697    698    687    752    763    764    753
8    752    763    764    753    818    829    830    819
8    818    829    830    819    884    895    896    885
8    884    895    896    885    950    961    962    951
8    631    642    643    632    697    708    709    698
8    697    708    709    698    763    774    775    764
8    763    774    775    764    829    840    841    830
8    829    840    841    830    895    906    907    896
8    895    906    907    896    961    972    973    962
8    642    653    654    643    708    719    720    709
8    708    719    720    709    774    785    786    775
8    774    785    786    775    840    851    852    841
8    840    851    852    841    906    917    918    907
8    906    917    918    907    972    983    984    973
8    599    610    611    600    665    676    677    666
8    665    676    677    666    731    742    743    732
8    731    742    743    732    797    808    809    798
8    797    808    809    798    863    874    875    864
8    863    874    875    864    929    940    941    930
8    610    621    622    611    676    687    688    677
8    676    687    688    677    742    753    754    743
8    742    753    754    743    808    819    820    809
8    808    819    820    809    874    885    886    875
8    874    885    886    875    940    951    952    941
8    621    632    633    622    687    698    699    688
8    687    698    699    688    753    764    765    754
8    753    764    765    754    819    830    831    820
8    819    830    831    820    885    896    897    886
8    885    896    897    886    951    962    963    952
8    632    643    644    633    698    709    710    699
8    698    709    710    699    764    775    776    765
8    764    775    776    765    830    841    842    831
8    830    841    842    831    896    907    908    897
8    896    907    908    897    962    973    974    963
8    643    654    655    644    709    720    721    710
8    709    720    721    710    775    786    787    776
8    775    786    787    776    841    852    853    842
8    841    852    853    842    907    918    919    908
8    907    918    919    908    973    984    985    974
8    600    611    612    601    666    677    678    667
8    666    677    678    667    732    743    744    733
8    732    743    744    733    798    809    810    799
8    798    809    810    799    864    875    876    865
8    864    875    876    865    930    941    942    931
8    611    622    623    612    677    688    689    678
8    677    688    689    678    743    754    755    744
8    743    754    755    744    809    820    821    810
8    809    820    821    810    875    886    887    876
8    875    886    887    876    941    952    953    942
8    622    633    634    623    688    699    700    689
8    688    699    700    689    754    765    766    755
8    754    765    766    755    820    831    832    821
8    820    831    832    821    886    897    898    887
8    886    897    898    887    952    963    964    953
8    633    644    645    634    699    710    711    700
8    699    710    711    700    765    776    777    766
8    765    776    777    766    831    842    843    832
8    831    842    843    832    897    908    909    898
8    897    908    909    898    963    974    975    964
8    644    655    656    645    710    721    722    711
8    710    721    722    711    776    787    788    777
8    776    787    788    777    842    853    854    843
8    842    853    854    843    908    919    920    909
8    908    919    920    909    974    985    986    975
8    601    612    613    602    667    678    679    668
8    667    678    679    668    733    744    745    734
8    733    744    745    734    799    810    811    800
8    799    810    811    800    865    876    877    866
8    865    876    877    866    931    942    943    932
8    612    623    624    613    678    689    690    679
8    678    689    690    679    744    755    756    745
8    744    755    756    745    810    821    822    811
8    810    821    822    811    876    887    888    877
8    876    887    888    877    942    953    954    943
8    623    634    635    624    689    700    701    690
8    689    700    701    690    755    766    767    756
8    755    766    767    756    821    832    833    822
8    821    832    833    822    887    898    899    888
8    887    898    899    888    953    964    965    954
8    634    645    646    635    700    711    712    701
8    700    711    712    701    766    777    778    767
8    766    777    778    767    832    843    844    833
8    832    843    844    833    898    909    910    899
8    898    909    910    899    964    975    976    965
8    645    656    657    646    711    722    723    712
8    711    722    723    712    777    788    789    778
8    777    788    789    778    843    854    855    844
8    843    854    855    844    909    920    921    910
8    909    920    921    910    975    986    987    976
8    602    613    614    603    668    679    680    669
8    668    679    680    669    734    745    746    735
8    734    745    746    735    800    811    812    801
8    800    811    812    801    866    877    878    867
8    866    877    878    867    932    943    944    933
8    613    624    625    614    679    690    691    680
8    679    690    691    680    745    756    757    746
8    745    756    757    746    811    822    823    812
8    811    822    823    812    877    888    889    878
8    877    888    889    878    943    954    955    944
8    624    635    636    625    690    701    702    691
8    690    701    702    691    756    767    768    757
8    756    767    768    757    822    833    834    823
8    822    833    834    823    888    899    900    889
8    888    899    900    889    954    965    966    955
8    635    646    647    636    701    712    713    702
8    701    712    713    702    767    778    779    768
8    767    778    779    768    833    844    845    834
8    833    844    845    834    899    910    911    900
8    899    910    911    900    965    976    977    966
8    646    657    658    647    712    723    724    713
8    712    723    724    713    778    789    790    779
8    778    789    790    779    844    855    856    845
8    844    855    856    845    910    921    922    911
8    910    921    922    911    976    987    988    977
8    603    614    615    604    669    680    681    670
8    669    680    681    670    735    746    747    736
8    735    746    747    736    801    812    813    802
8    801    812    813    802    867    878    879    868
8    867    878    879    868    933    944    945    934
8    614    625    626    615    680    691    692    681
8    680    691    692    681    746    757    758    747
8    746    757    758    747    812    823    824    813
8    812    823    824    813    878    889    890    879
8    878    889    890    879    944    955    956    945
8    625    636    637    626    691    702    703    692
8    691    702    703    692    757    768    769    758
8    757    768    769    758    823    834    835    824
8    823    834    835    824    889    900    901    890
8    889    900    901    890    955    966    967    956
8    636    647    648    637    702    713    714    703
8    702    713    714    703    768    779    780    769
8    768    779    780    769    834    845    846    835
8    834    845    846    835    900    911    912    901
8    900    911    912    901    966    977    978    967
8    647    658    659    648    713    724    725    714
8    713    724    725    714    779    790    791    780
8    779    790    791    780    845    856    857    846
8    845    856    857    846    911    922    923    912
8    911    922    923    912    977    988    989    978
8    998    594    990    999   1052   1043   1044   1053
8   1052   1043   1044   1053   1106   1097   1098   1107
8   1106   1097   1098   1107   1160   1151   1152   1161
8   1160   1151   1152   1161   1214   1205   1206   1215
8   1214   1205   1206   1215   1268   1259   1260   1269
8   1007    998    999   1008   1061   1052   1053   1062
8   1061   1052   1053   1062   1115   1106   1107   1116
8   1115   1106   1107   1116   1169   1160   1161   1170
8   1169   1160   1161   1170   1223   1214   1215   1224
8   1223   1214   1215   1224   1277   1268   1269   1278
8   1016   1007   1008   1017   1070   1061   1062   1071
8   1070   1061   1062   1071   1124   1115   1116   1125
8   1124   1115   1116   1125   1178   1169   1170   1179
8   1178   1169   1170   1179   1232   1223   1224   1233
8   1232   1223   1224   1233   1286   1277   1278   1287
8   1025   1016   1017   1026   1079   1070   1071   1080
8   1079   1070   1071   1080   1133   1124   1125   1134
8   1133   1124   1125   1134   1187   1178   1179   1188
8   1187   1178   1179   1188   1241   1232   1233   1242
8   1241   1232   1233   1242   1295   1286   1287   1296
8   1034   1025   1026   1035   1088   1079   1080   1089
8   1088   1079   1080   1089   1142   1133   1134   1143
8   1142   1133   1134   1143   1196   1187   1188   1197
8   1196   1187   1188   1197   1250   1241   1242   1251
8   1250   1241   1242   1251   1304   1295   1296   1305
8    999    990    991   1000   1053   1044   1045   1054
8   1053   1044   1045   1054   1107   1098   1099   1108
8   1107   1098   1099   1108   1161   1152   1153   1162
8   1161   1152   1153   1162   1215   1206   1207   1216
8   1215   1206   1207   1216   1269   1260   1261   1270
8   1008    999   1000   1009   1062   1053   1054   1063
8   1062   1053   1054   1063   1116   1107   1108   1117
8   1116   1107   1108   1117   1170   1161   1162   1171
8   1170   1161   1162   1171   1224   1215   1216   1225
8   1224   1215   1216   1225   1278   1269   1270   1279
8   1017   1008   1009   1018   1071   1062   1063   1072
8   1071   1062   1063   1072   1125   1116   1117   1126
8   1125   1116   1117   1126   1179   1170   1171   1180
8   1179   1170   1171   1180   1233   1224   1225   1234
8   1233   1224   1225   1234   1287   1278   1279   1288
8   1026   1017   1018   1027   1080   1071   1072   1081
8   1080   1071   1072   1081   1134   1125   1126   1135
8   1134   1125   1126   1135   1188   1179   1180   1189
8   1188   1179   1180   1189   1242   1233   1234   1243
8   1242   1233   1234   1243   1296   1287   1288   1297
8   1035   1026   1027   1036   1089   1080   1081   1090
8   1089   1080   1081   1090   1143   1134   1135   1144
8   1143   1134   1135   1144   1197   1188   1189   1198
8   1197   1188   1189   1198   1251   1242   1243   1252
8   1251   1242   1243   1252   1305   1296   1297   1306
8   1000    991    992   1001   1054   1045   1046   1055
8   1054   1045   1046   1055   1108   1099   1100   1109
8   1108   1099   1100   1109   1162   1153   1154   1163
8   1162   1153   1154   1163   1216   1207   1208   1217
8   1216   1207   1208   1217   1270   1261   1262   1271
8   1009   1000   1001   1010   1063   1054   1055   1064
8   1063   1054   1055   1064   1117   1108   1109   1118
8   1117   1108   1109   1118   1171   1162   1163   1172
8   1171   1162   1163   1172   1225   1216   1217   1226
8   1225   1216   1217   1226   1279   1270   1271   1280
8   1018   1009   1010   1019   1072   1063   1064   1073
8   1072   1063   1064   1073   1126   1117   1118   1127
8   1126   1117   1118   1127   1180   1171   1172   1181
8   1180   1171   1172   1181   1234   1225   1226   1235
8   1234   1225   1226   1235   1288   1279   1280   1289
8   1027   1018   1019   1028   1081   1072   1073   1082
8   1081   1072   1073   1082   1135   1126   1127   1136
8   1135   1126   1127   1136   1189   1180   1181   1190
8   1189   1180   1181   1190   1243   1234   1235   1244
8   1243   1234   1235   1244   1297   1288   1289   1298
8   1036   1027   1028   1037   1090   1081   1082   1091
8   1090   1081   1082   1091   1144   1135   1136   1145
8   1144   1135   1136   1145   1198   1189   1190   1199
8   1198   1189   1190   1199   1252   1243   1244   1253
8   1252   1243   1244   1253   1306   1297   1298   1307
8   1001    992    993   1002   1055   1046   1047   1056
8   1055   1046   1047   1056   1109   1100   1101   1110
8   1109   1100   1101   1110   1163   1154   1155   1164
8   1163   1154   1155   1164   1217   1208   1209   1218
8   1217   1208   1209   1218   1271   1262   1263   1272
8   1010   1001   1002   1011   1064   1055   1056   1065
8   1064   1055   1056   1065   1118   1109   1110   1119
8   1118   1109   1110   1119   1172   1163   1164   1173
8   1172   1163   1164   1173   1226   1217   1218   1227
8   1226   1217   1218   1227   1280   1271   1272   1281
8   1019   1010   1011   1020   1073   1064   1065   1074
8   1073   1064   1065   1074   1127   1118   1119   1128
8   1127   1118   1119   1128   1181   1172   1173   1182
8   1181   1172   1173   1182   1235   1226   1227   1236
8   1235   1226   1227   1236   1289   1280   1281   1290
8   1028   1019   1020   1029   1082   1073   1074   1083
8   1082   1073   1074   1083   1136   1127   1128   1137
8   1136   1127   1128   1137   1190   1181   1182   1191
8   1190   1181   1182   1191   1244   1235   1236   1245
8   1244   1235   1236   1245   1298   1289   1290   1299
8   1037   1028   1029   1038   1091   1082   1083   1092
8   1091   1082   1083   1092   1145   1136   1137   1146
8   1145   1136   1137   1146   1199   1190   1191   1200
8   1199   1190   1191   1200   1253   1244   1245   1254
8   1253   1244   1245   1254   1307   1298   1299   1308
8   1002    993    994   1003   1056   1047   1048   1057
8   1056   1047   1048   1057   1110   1101   1102   1111
8   1110   1101   1102   1111   1164   1155   1156   1165
8   1164   1155   1156   1165   1218   1209   1210   1219
8   1218   1209   1210   1219   1272   1263   1264   1273
8   1011   1002   1003   1012   1065   1056   1057   1066
8   1065   1056   1057   1066   1119   1110   1111   1120
8   1119   1110   1111   1120   1173   1164   1165   1174
8   1173   1164   1165   1174   1227   1218   1219   1228
8   1227   1218   1219   1228   1281   1272   1273   1282
8   1020   1011   1012   1021   1074   1065   1066   1075
8   1074   1065   1066   1075   1128   1119   1120   1129
8   1128   1119   1120   1129   1182   1173   1174   1183
8   1182   1173   1174   1183   1236   1227   1228   1237
8   1236   1227   1228   1237   1290   1281   1282   1291
8   1029   1020   1021   1030   1083   1074   1075   1084
8   1083   1074   1075   1084   1137   1128   1129   1138
8   1137   1128   1129   1138   1191   1182   1183   1192
8   1191   1182   1183   1192   1245   1236   1237   1246
8   1245   1236   1237   1246   1299   1290   1291   1300
8   1038   1029   1030   1039   1092   1083   1084   1093
8   1092   1083   1084   1093   1146   1137   1138   1147
8   1146   1137   1138   1147   1200   1191   1192   1201
8   1200   1191   1192   1201   1254   1245   1246   1255
8   1254   1245   1246   1255   1308   1299   1300   1309
8   1003    994    995   1004   1057   1048   1049   1058
8   1057   1048   1049   1058   1111   1102   1103   1112
8   1111   1102   1103   1112   1165   1156   1157   1166
8   1165   1156   1157   1166   1219   1210   1211   1220
8   1219   1210   1211   1220   1273   1264   1265   1274
8   1012   1003   1004   1013   1066   1057   1058   1067
8   1066   1057   1058   1067   1120   1111   1112   1121
8   1120   1111   1112   1121   1174   1165   1166   1175
8   1174   1165   1166   1175   1228   1219   1220   1229
8   1228   1219   1220   1229   1282   1273   1274   1283
8   1021   1012   1013   1022   1075   1066   1067   1076
8   1075   1066   1067   1076   1129   1120   1121   1130
8   1129   1120   1121   1130   1183   1174   1175   1184
8   1183   1174   1175   1184   1237   1228   1229   1238
8   1237   1228   1229   1238   1291   1282   1283   1292
8   1030   1021   1022   1031   1084   1075   1076   1085
8   1084   1075   1076   1085   1138   1129   1130   1139
8   1138   1129   1130   1139   1192   1183   1184   1193
8   1192   1183   1184   1193   1246   1237   1238   1247
8   1246   1237   1238   1247   1300   1291   1292   1301
8   1039   1030   1031   1040   1093   1084   1085   1094
8   1093   1084   1085   1094   1147   1138   1139   1148
8   1147   1138   1139   1148   1201   1192   1193   1202
8   1201   1192   1193   1202   1255   1246   1247   1256
8   1255   1246   1247   1256   1309   1300   1301   1310
8   1004    995    996   1005   1058   1049   1050   1059
8   1058   1049   1050   1059   1112   1103   1104   1113
8   1112   1103   1104   1113   1166   1157   1158   1167
8   1166   1157   1158   1167   1220   1211   1212   1221
8   1220   1211   1212   1221   1274   1265   1266   1275
8   1013   1004   1005   1014   1067   1058   1059   1068
8   1067   1058   1059   1068   1121   1112   1113   1122
8   1121   1112   1113   1122   1175   1166   1167   1176
8   1175   1166   1167   1176   1229   1220   1221   1230
8   1229   1220   1221   1230   1283   1274   1275   1284
8   1022   1013   1014   1023   1076   1067   1068   1077
8   1076   1067   1068   1077   1130   1121   1122   1131
8   1130   1121   1122   1131   1184   1175   1176   1185
8   1184   1175   1176   1185   1238   1229   1230   1239
8   1238   1229   1230   1239   1292   1283   1284   1293
8   1031   1022   1023   1032   1085   1076   1077   1086
8   1085   1076   1077   1086   1139   1130   1131   1140
8   1139   1130   1131   1140   1193   1184   1185   1194
8   1193   1184   1185   1194   1247   1238   1239   1248
8   1247   1238   1239   1248   1301   1292   1293   1302
8   1040   1031   1032   1041   1094   1085   1086   1095
8   1094   1085   1086   1095   1148   1139   1140   1149
8   1148   1139   1140   1149   1202   1193   1194   1203
8   1202   1193   1194   1203   1256   1247   1248   1257
8   1256   1247   1248   1257   1310   1301   1302   1311
8   1005    996    997   1006   1059   1050   1051   1060
8   1059   1050   1051   1060   1113   1104   1105   1114
8   1113   1104   1105   1114   1167   1158   1159   1168
8   1167   1158   1159   1168   1221   1212   1213   1222
8   1221   1212   1213   1222   1275   1266   1267   1276
8   1014   1005   1006   1015   1068   1059   1060   1069
8   1068   1059   1060   1069   1122   1113   1114   1123
8   1122   1113   1114   1123   1176   1167   1168   1177
8   1176   1167   1168   1177   1230   1221   1222   1231
8   1230   1221   1222   1231   1284   1275   1276   1285
8   1023   1014   1015   1024   1077   1068   1069   1078
8   1077   1068   1069   1078   1131   1122   1123   1132
8   1131   1122   1123   1132   1185   1176   1177   1186
8   1185   1176   1177   1186   1239   1230   1231   1240
8   1239   1230   1231   1240   1293   1284   1285   1294
8   1032   1023   1024   1033   1086   1077   1078   1087
8   1086   1077   1078   1087   1140   1131   1132   1141
8   1140   1131   1132   1141   1194   1185   1186   1195
8   1194   1185   1186   1195   1248   1239   1240   1249
8   1248   1239   1240   1249   1302   1293   1294   1303
8   1041   1032   1033   1042   1095   1086   1087   1096
8   1095   1086   1087   1096   1149   1140   1141   1150
8   1149   1140   1141   1150   1203   1194   1195   1204
8   1203   1194   1195   1204   1257   1248   1249   1258
8   1257   1248   1249   1258   1311   1302   1303   1312
8      0   1314   1324     99      1   1315   1325    100
8     99   1324   1334    198    100   1325   1335    199
8    198   1334   1344    297    199   1335   1345    298
8    297   1344   1354    396    298   1345   1355    397
8    396   1354   1364    495    397   1355   1365    496
8    495   1364   1374    504    496   1365   1375    505
8    504   1374   1384    513    505   1375   1385    514
8    513   1384   1394    522    514   1385   1395    523
8    522   1394   1404    531    523   1395   1405    532
8    531   1404   1414    540    532   1405   1415    541
8    540   1414   1424    549    541   1415   1425    550
8    549   1424   1434    558    550   1425   1435    559
8    558   1434   1444    567    559   1435   1445    568
8    567   1444   1454    576    568   1445   1455    577
8    576   1454   1464    585    577   1455   1465    586
8     90    189   1504   1514     91    190   1505   1515
8    189    288   1494   1504    190    289   1495   1505
8    288    387   1484   1494    289    388   1485   1495
8    387    486   1474   1484    388    487   1475   1485
8    486    585   1464   1474    487    586   1465   1475
8      1   1315   1325    100      2   1316   1326    101
8    100   1325   1335    199    101   1326   1336    200
8    199   1335   1345    298    200   1336   1346    299
8    298   1345   1355    397    299   1346   1356    398
8    397   1355   1365    496    398   1356   1366    497
8    496   1365   1375    505    497   1366   1376    506
8    505   1375   1385    514    506   1376   1386    515
8    514   1385   1395    523    515   1386   1396    524
8    523   1395   1405    532    524   1396   1406    533
8    532   1405   1415    541    533   1406   1416    542
8    541   1415   1425    550    542   1416   1426    551
8    550   1425   1435    559    551   1426   1436    560
8    559   1435   1445    568    560   1436   1446    569
8    568   1445   1455    577    569   1446   1456    578
8    577   1455   1465    586    578   1456   1466    587
8     91    190   1505   1515     92    191   1506   1516
8    190    289   1495   1505    191    290   1496   1506
8    289    388   1485   1495    290    389   1486   1496
8    388    487   1475   1485    389    488   1476   1486
8    487    586   1465   1475    488    587   1466   1476
8      2   1316   1326    101      3   1317   1327    102
8    101   1326   1336    200    102   1327   1337    201
8    200   1336   1346    299    201   1337   1347    300
8    299   1346   1356    398    300   1347   1357    399
8    398   1356   1366    497    399   1357   1367    498
8    497   1366   1376    506    498   1367   1377    507
8    506   1376   1386    515    507   1377   1387    516
8    515   1386   1396    524    516   1387   1397    525
8    524   1396   1406    533    525   1397   1407    534
8    533   1406   1416    542    534   1407   1417    543
8    542   1416   1426    551    543   1417   1427    552
8    551   1426   1436    560    552   1427   1437    561
8    560   1436   1446    569    561   1437   1447    570
8    569   1446   1456    578    570   1447   1457    579
8    578   1456   1466    587    579   1457   1467    588
8     92    191   1506   1516     93    192   1507   1517
8    191    290   1496   1506    192    291   1497   1507
8    290    389   1486   1496    291    390   1487   1497
8    389    488   1476   1486    390    489   1477   1487
8    488    587   1466   1476    489    588   1467   1477
8      3   1317   1327    102      4   1318   1328    103
8    102   1327   1337    201    103   1328   1338    202
8    201   1337   1347    300    202   1338   1348    301
8    300   1347   1357    399    301   1348   1358    400
8    399   1357   1367    498    400   1358   1368    499
8    498   1367   1377    507    499   1368   1378    508
8    507   1377   1387    516    508   1378   1388    517
8    516   1387   1397    525    517   1388   1398    526
8    525   1397   1407    534    526   1398   1408    535
8    534   1407   1417    543    535   1408   1418    544
8    543   1417   1427    552    544   1418   1428    553
8    552   1427   1437    561    553   1428   1438    562
8    561   1437   1447    570    562   1438   1448    571
8    570   1447   1457    579    571   1448   1458    580
8    579   1457   1467    588    580   1458   1468    589
8     93    192   1507   1517     94    193   1508   1518
8    192    291   1497   1507    193    292   1498   1508
8    291    390   1487   1497    292    391   1488   1498
8    390    489   1477   1487    391    490   1478   1488
8    489    588   1467   1477    490    589   1468   1478
8      4   1318   1328    103      5   1319   1329    104
8    103   1328   1338    202    104   1329   1339    203
8    202   1338   1348    301    203   1339   1349    302
8    301   1348   1358    400    302   1349   1359    401
8    400   1358   1368    499    401   1359   1369    500
8    499   1368   1378    508    500   1369   1379    509
8    508   1378   1388    517    509   1379   1389    518
8    517   1388   1398    526    518   1389   1399    527
8    526   1398   1408    535    527   1399   1409    536
8    535   1408   1418    544    536   1409   1419    545
8    544   1418   1428    553    545   1419   1429    554
8    553   1428   1438    562    554   1429   1439    563
8    562   1438   1448    571    563   1439   1449    572
8    571   1448   1458    580    572   1449   1459    581
8    580   1458   1468    589    581   1459   1469    590
8     94    193   1508   1518     95    194   1509   1519
8    193    292   1498   1508    194    293   1499   1509
8    292    391   1488   1498    293    392   1489   1499
8    391    490   1478   1488    392    491   1479   1489
8    490    589   1468   1478    491    590   1469   1479
8      5   1319   1329    104      6   1320   1330    105
8    104   1329   1339    203    105   1330   1340    204
8    203   1339   1349    302    204   1340   1350    303
8    302   1349   1359    401    303   1350   1360    402
8    401   1359   1369    500    402   1360   1370    501
8    500   1369   1379    509    501   1370   1380    510
8    509   1379   1389    518    510   1380   1390    519
8    518   1389   1399    527    519   1390   1400    528
8    527   1399   1409    536    528   1400   1410    537
8    536   1409   1419    545    537   1410   1420    546
8    545   1419   1429    554    546   1420   1430    555
8    554   1429   1439    563    555   1430   1440    564
8    563   1439   1449    572    564   1440   1450    573
8    572   1449   1459    581    573   1450   1460    582
8    581   1459   1469    590    582   1460   1470    591
8     95    194   1509   1519     96    195   1510   1520
8    194    293   1499   1509    195    294   1500   1510
8    293    392   1489   1499    294    393   1490   1500
8    392    491   1479   1489    393    492   1480   1490
8    491    590   1469   1479    492    591   1470   1480
8      6   1320   1330    105      7   1321   1331    106
8    105   1330   1340    204    106   1331   1341    205
8    204   1340   1350    303    205   1341   1351    304
8    303   1350   1360    402    304   1351   1361    403
8    402   1360   1370    501    403   1361   1371    502
8    501   1370   1380    510    502   1371   1381    511
8    510   1380   1390    519    511   1381   1391    520
8    519   1390   1400    528    520   1391   1401    529
8    528   1400   1410    537    529   1401   1411    538
8    537   1410   1420    546    538   1411   1421    547
8    546   1420   1430    555    547   1421   1431    556
8    555   1430   1440    564    556   1431   1441    565
8    564   1440   1450    573    565   1441   1451    574
8    573   1450   1460    582    574   1451   1461    583
8    582   1460   1470    591    583   1461   1471    592
8     96    195   1510   1520     97    196   1511   1521
8    195    294   1500   1510    196    295   1501   1511
8    294    393   1490   1500    295    394   1491   1501
8    393    492   1480   1490    394    493   1481   1491
8    492    591   1470   1480    493    592   1471   1481
8      7   1321   1331    106      8   1322   1332    107
8    106   1331   1341    205    107   1332   1342    206
8    205   1341   1351    304    206   1342   1352    305
8    304   1351   1361    403    305   1352   1362    404
8    403   1361   1371    502    404   1362   1372    503
8    502   1371   1381    511    503   1372   1382    512
8    511   1381   1391    520    512   1382   1392    521
8    520   1391   1401    529    521   1392   1402    530
8    529   1401   1411    538    530   1402   1412    539
8    538   1411   1421    547    539   1412   1422    548
8    547   1421   1431    556    548   1422   1432    557
8    556   1431   1441    565    557   1432   1442    566
8    565   1441   1451    574    566   1442   1452    575
8    574   1451   1461    583    575   1452   1462    584
8    583   1461   1471    592    584   1462   1472    593
8     97    196   1511   1521     98    197   1512   1522
8    196    295   1501   1511    197    296   1502   1512
8    295    394   1491   1501    296    395   1492   1502
8    394    493   1481   1491    395    494   1482   1492
8    493    592   1471   1481    494    593   1472   1482
8   1523   1524      9      0   1534   1535    108     99
8   1534   1535    108     99   1545   1546    207    198
8   1545   1546    207    198   1556   1557    306    297
8   1556   1557    306    297   1567   1568    405    396
8   1567   1568    405    396   1578   1579    504    495
8   1524   1525     18      9   1535   1536    117    108
8   1535   1536    117    108   1546   1547    216    207
8   1546   1547    216    207   1557   1558    315    306
8   1557   1558    315    306   1568   1569    414    405
8   1568   1569    414    405   1579   1580    513    504
8   1525   1526     27     18   1536   1537    126    117
8   1536   1537    126    117   1547   1548    225    216
8   1547   1548    225    216   1558   1559    324    315
8   1558   1559    324    315   1569   1570    423    414
8   1569   1570    423    414   1580   1581    522    513
8   1526   1527     36     27   1537   1538    135    126
8   1537   1538    135    126   1548   1549    234    225
8   1548   1549    234    225   1559   1560    333    324
8   1559   1560    333    324   1570   1571    432    423
8   1570   1571    432    423   1581   1582    531    522
8   1527   1528     45     36   1538   1539    144    135
8   1538   1539    144    135   1549   1550    243    234
8   1549   1550    243    234   1560   1561    342    333
8   1560   1561    342    333   1571   1572    441    432
8   1571   1572    441    432   1582   1583    540    531
8   1528   1529     54     45   1539   1540    153    144
8   1539   1540    153    144   1550   1551    252    243
8   1550   1551    252    243   1561   1562    351    342
8   1561   1562    351    342   1572   1573    450    441
8   1572   1573    450    441   1583   1584    549    540
8   1529   1530     63     54   1540   1541    162    153
8   1540   1541    162    153   1551   1552    261    252
8   1551   1552    261    252   1562   1563    360    351
8   1562   1563    360    351   1573   1574    459    450
8   1573   1574    459    450   1584   1585    558    549
8   1530   1531     72     63   1541   1542    171    162
8   1541   1542    171    162   1552   1553    270    261
8   1552   1553    270    261   1563   1564    369    360
8   1563   1564    369    360   1574   1575    468    459
8   1574   1575    468    459   1585   1586    567    558
8   1531   1532     81     72   1542   1543    180    171
8   1542   1543    180    171   1553   1554    279    270
8   1553   1554    279    270   1564   1565    378    369
8   1564   1565    378    369   1575   1576    477    468
8   1575   1576    477    468   1586   1587    576    567
8   1532   1533     90     81   1543   1544    189    180
8   1543   1544    189    180   1554   1555    288    279
8   1554   1555    288    279   1565   1566    387    378
8   1565   1566    387    378   1576   1577    486    477
8   1576   1577    486    477   1587   1588    585    576
8   1523   1313   1323   1534      0   1314   1324     99
8   1534   1323   1333   1545     99   1324   1334    198
8   1545   1333   1343   1556    198   1334   1344    297
8   1556   1343   1353   1567    297   1344   1354    396
8   1567   1353   1363   1578    396   1354   1364    495
8   1578   1363   1373   1579    495   1364   1374    504
8   1579   1373   1383   1580    504   1374   1384    513
8   1580   1383   1393   1581    513   1384   1394    522
8   1581   1393   1403   1582    522   1394   1404    531
8   1582   1403   1413   1583    531   1404   1414    540
8   1583   1413   1423   1584    540   1414   1424    549
8   1584   1423   1433   1585    549   1424   1434    558
8   1585   1433   1443   1586    558   1434   1444    567
8   1586   1443   1453   1587    567   1444   1454    576
8   1587   1453   1463   1588    576   1454   1464    585
8   1533   1544   1503   1513     90    189   1504   1514
8   1544   1555   1493   1503    189    288   1494   1504
8   1555   1566   1483   1493    288    387   1484   1494
8   1566   1577   1473   1483    387    486   1474   1484
8   1577   1588   1463   1473    486    585   1464   1474
CELL_TYPES  1130
12
12
12
12
12
12
12
12
12
12
12
12
12
12
12
12
12
12
12
12
12
12
12
12
12
12
12
12
12
12
12
12
12
12
12
12
12
12
12
12
12
12
12
12
12
12
12
12
12
12
12
12
12
12
12
12
12
12
12
12
12
12
12
12
12
12
12
12
12
12
12
12
12
12
12
12
12
12
12
12
12
12
12
12
12
12
12
12
12
12
12
12
12
12
12
12
12
12
12
12
12
12
12
12
12
12
12
12
12
12
12
12
12
12
12
12
12
12
12
12
12
12
12
12
12
12
12
12
12
12
12
12
12
12
12
12
12
12
12
12
12
12
12
12
12
12
12
12
12
12
12
12
12
12
12
12
12
12
12
12
12
12
12
12
12
12
12
12
12
12
12
12
12
12
12
12
12
12
12
12
12
12
12
12
12
12
12
12
12
12
12
12
12
12
12
12
12
12
12
12
12
12
12
12
12
12
12
12
12
12
12
12
12
12
12
12
12
12
12
12
12
12
12
12
12
12
12
12
12
12
12
12
12
12
12
12
12
12
12
12
12
12
12
12
12
12
12
12
12
12
12
12
12
12
12
12
12
12
12
12
12
12
12
12
12
12
12
12
12
12
12
12
12
12
12
12
12
12
12
12
12
12
12
12
12
12
12
12
12
12
12
12
12
12
12
12
12
12
12
12
12
12
12
12
12
12
12
12
12
12
12
12
12
12
12
12
12
12
12
12
12
12
12
12
12
12
12
12
12
12
12
12
12
12
12
12
12
12
12
12
12
12
12
12
12
12
12
12
12
12
12
12
12
12
12
12
12
12
12
12
12
12
12
12
12
12
12
12
12
12
12
12
12
12
12
12
12
12
12
12
12
12
12
12
12
12
12
12
12
12
12
12
12
12
12
12
12
12
12
12
12
12
12
12
12
12
12
12
12
12
12
12
12
12
12
12
12
12
12
12
12
12
12
12
12
12
12
12
12
12
12
12
12
12
12
12
12
12
12
12
12
12
12
12
12
12
12
12
12
12
12
12
12
12
12
12
12
12
12
12
12
12
12
12
12
12
12
12
12
12
12
12
12
12
12
12
12
12
12
12
12
12
12
12
12
12
12
12
12
12
12
12
12
12
12
12
12
12
12
12
12
12
12
12
12
12
12
12
12
12
12
12
12
12
12
12
12
12
12
12
12
12
12
12
12
12
12
12
12
12
12
12
12
12
12
12
12
12
12
12
12
12
12
12
12
12
12
12
12
12
12
12
12
12
12
12
12
12
12
12
12
12
12
12
12
12
12
12
12
12
12
12
12
12
12
12
12
12
12
12
12
12
12
12
12
12
12
12
12
12
12
12
12
12
12
12
12
12
12
12
12
12
12
12
12
12
12
12
12
12
12
12
12
12
12
12
12
12
12
12
12
12
12
12
12
12
12
12
12
12
12
12
12
12
12
12
12
12
12
12
12
12
12
12
12
12
12
12
12
12
12
12
12
12
12
12
12
12
12
12
12
12
12
12
12
12
12
12
12
12
12
12
12
12
12
12
12
12
12
12
12
12
12
12
12
12
12
12
12
12
12
12
12
12
12
12
12
12
12
12
12
12
12
12
12
12
12
12
12
12
12
12
12
12
12
12
12
12
12
12
12
12
12
12
12
12
12
12
12
12
12
12
12
12
12
12
12
12
12
12
12
12
12
12
12
12
12
12
12
12
12
12
12
12
12
12
12
12
12
12
12
12
12
12
12
12
12
12
12
12
12
12
12
12
12
12
12
12
12
12
12
12
12
12
12
12
12
12
12
12
12
12
12
12
12
12
12
12
12
12
12
12
12
12
12
12
12
12
12
12
12
12
12
12
12
12
12
12
12
12
12
12
12
12
12
12
12
12
12
12
12
12
12
12
12
12
12
12
12
12
12
12
12
12
12
12
12
12
12
12
12
12
12
12
12
12
12
12
12
12
12
12
12
12
12
12
12
12
12
12
12
12
12
12
12
12
12
12
12
12
12
12
12
12
12
12
12
12
12
12
12
12
12
12
12
12
12
12
12
12
12
12
12
12
12
12
12
12
12
12
12
12
12
12
12
12
12
12
12
12
12
12
12
12
12
12
12
12
12
12
12
12
12
12
12
12
12
12
12
12
12
12
12
12
12
12
12
12
12
12
12
12
12
12
12
12
12
12
12
12
12
12
12
12
12
12
12
12
12
12
12
12
12
12
12
12
12
12
12
12
12
12
12
12
12
12
12
12
12
12
12
12
12
12
12
12
12
12
12
12
12
12
12
12
12
12
12
12
12
12
12
12
12
12
12
12
12
12
12
12
12
12
12
12
12
12
12
12
12
12
12
12
12
12
12
12
12
12
12
12
12
12
12
12
12
12
12
12
12
12
12
12
12
12
12
12
12
12
12
12
12
12
12
12
12
12
12
12
12
12
12
12
12
12
12
12
12
12
12
12
12
12
12
12
12
12
12
12
12
12
12
12
12
12
12
12
12
12
12
12
12
12
12
12
12
12
12
12
12
12
12
12
12
12
12
12
12
12
12
12
12
12
12
12
12
12
12
12
12
12
POINT_DATA      1589
VECTORS Velocities float 
     0.00000000     0.00000000     0.00000000
     0.00000000     0.00000000     0.00000000
     0.00000000     0.00000000     0.00000000
     0.00000000     0.00000000     0.00000000
     0.00000000     0.00000000     0.00000000
     0.00000000     0.00000000     0.00000000
     0.00000000     0.00000000     0.00000000
     0.00000000     0.00000000     0.00000000
     0.00000000     0.00000000     0.00000000
     0.00000000     0.00000000     0.00000000
    40.70789489    -2.61606744     0.00000000
    56.73003507   -30.71427500     0.00000000
    29.02070832    19.52643183     0.00000000
    31.77968826   -23.44743145     0.00000000
    -6.77373595    20.73891477     0.00000000
  -148.94455463    10.33548773     0.00000000
  -267.05942361    58.41746177     0.00000000
  -442.93404271    35.18853601     0.00000000
     0.00000000     0.00000000     0.00000000
    31.38529576   -26.25820220     0.00000000
   -29.44941309    21.41668468     0.00000000
    13.39954216   -21.45051066     0.00000000
    -2.47697038    22.32207625     0.00000000
     7.19933755   -30.17214408     0.00000000
  -110.18149782   141.48440998     0.00000000
  -135.89661752   180.87448177     0.00000000
   189.65520516   214.85031711     0.00000000
     0.00000000     0.00000000     0.00000000
   -64.18426358    -9.83873927     0.00000000
   -13.22825931    -4.51778512     0.00000000
   -14.73873624    11.44020649     0.00000000
    -7.44193604   -28.48519768     0.00000000
   -10.94793718    12.78748790     0.00000000
   -65.32895905   107.09928845     0.00000000
    66.98049857   161.49890501     0.00000000
   122.73284552   168.76030587     0.00000000
     0.00000000     0.00000000     0.00000000
   -10.86930733   -24.34583065     0.00000000
   -66.66371260    16.92120500     0.00000000
     8.13924142   -20.30077670     0.00000000
   -31.40998164    17.58445755     0.00000000
    -8.21816191   -49.14406362     0.00000000
    65.96872692    88.20069479     0.00000000
    64.17342621    53.01020786     0.00000000
   324.09901706   116.27752801     0.00000000
     0.00000000     0.00000000     0.00000000
  -122.25463334    -5.00128776     0.00000000
   -51.63070736    -0.94434450     0.00000000
   -65.19840198   -13.06146170     0.00000000
     6.81090065   -18.07962192     0.00000000
   -34.36725207     7.44776554     0.00000000
    -8.57807924   -66.20125718     0.00000000
    75.52326031    75.30708195     0.00000000
     0.00000000     0.00000000     0.00000000
     0.00000000     0.00000000     0.00000000
   -11.74600314    20.48232409     0.00000000
   -75.33869895   -37.99206775     0.00000000
    34.50245731    13.47080717     0.00000000
   -83.41553074   -46.91664752     0.00000000
    64.95734047    -9.68956510     0.00000000
    -8.67686212   -19.48734785     0.00000000
    71.96065323  -134.77799081     0.00000000
   199.17935920    42.41745174     0.00000000
     0.00000000     0.00000000     0.00000000
   -31.92651314     6.98864164     0.00000000
   -24.91830396    -2.22198882     0.00000000
   -36.58467501   -28.63223136     0.00000000
    -3.97498536     9.45996601     0.00000000
   -63.93961940   -92.13601279     0.00000000
    60.95223402    21.74711780     0.00000000
    71.61353195  -182.82213091     0.00000000
   -38.29016056   183.32481306     0.00000000
     0.00000000     0.00000000     0.00000000
    -6.47723602     9.85755556     0.00000000
   -29.58144044   -19.82962917     0.00000000
    25.12886834     5.08118900     0.00000000
   -53.81222549   -38.77293601     0.00000000
   -30.00699052    -4.31357283     0.00000000
   -94.80027766  -128.53148568     0.00000000
   -30.09153803    -1.07673446     0.00000000
    59.01034424    65.64491088     0.00000000
     0.00000000     0.00000000     0.00000000
    63.34522101    28.67201320     0.00000000
    49.77606222     1.56653710     0.00000000
    15.25415074    -6.73503316     0.00000000
   -19.01035481     5.03040250     0.00000000
   -95.11324999   -36.57799935     0.00000000
  -191.78944043     2.11375189     0.00000000
  -256.53646023    26.80900813     0.00000000
  -254.30310402   206.44634477     0.00000000
     0.00000000     0.00000000     0.00000000
     0.00000000     0.00000000     0.00000000
     0.00000000     0.00000000     0.00000000
     0.00000000     0.00000000     0.00000000
     0.00000000     0.00000000     0.00000000
     0.00000000     0.00000000     0.00000000
     0.00000000     0.00000000     0.00000000
     0.00000000     0.00000000     0.00000000
     0.00000000     0.00000000     0.00000000
     0.00000000     0.00000000     0.00000000
     0.00000000     0.00000000     0.00000000
     0.00000000     0.00000000     0.00000000
     0.00000000     0.00000000     0.00000000
     0.00000000     0.00000000     0.00000000
     0.00000000     0.00000000     0.00000000
     0.00000000     0.00000000     0.00000000
     0.00000000     0.00000000     0.00000000
     0.00000000     0.00000000     0.00000000
     0.00000000     0.00000000     0.00000000
   -34.20207251     4.28363740   -14.52066121
     3.31275282   -24.44508490     3.01294272
     1.93471491    24.29984110     0.77618488
     3.95226679   -25.87228956    -8.50772190
    21.16691756    19.82634652    27.68255485
   -19.36268838     6.57854636    31.45278351
  -140.53893630    56.16839661   -53.01289487
  -443.30262316    34.12095681   -86.05752364
     0.00000000     0.00000000     0.00000000
    24.94012685   -33.39418282    13.66484552
    -8.18639103    18.05196527    -2.02688258
    -3.30246648   -26.26952848     3.36527121
    11.91217100    32.33008516    -5.47390200
     0.06682701   -56.87152751    24.11511828
    13.30952420    94.49643137    23.72722756
   -89.97471183   136.75375437   -61.52885501
   216.12903102    52.85303763  -153.50591844
     0.00000000     0.00000000     0.00000000
   -31.03091516    -1.21667554    12.47430271
    38.24373572   -12.19766055    -8.07433950
   -25.23859053    14.59333100     0.39069154
    25.88004782   -25.73401365    -0.69567866
   -19.10335993    10.88780929    16.97006548
     2.53485523    10.04730853    35.75089525
   104.13145049   208.64227739   -61.99899988
   -26.04777063   -76.71385089   -50.68244037
     0.00000000     0.00000000     0.00000000
    66.38331921   -30.87242611    26.27622004
   -19.45119414    10.44085669   -13.55710091
    27.87200321   -13.40648745     4.49921204
   -20.79900073     9.54648101    -3.58332978
     2.36732689   -33.46204427    14.70370655
    53.97743947     3.53432094    -4.27560107
    90.87409076    47.27070813    55.31499594
   262.77030952    20.40791249   -57.96964301
     0.00000000     0.00000000     0.00000000
   -63.97894999    -4.09867603    18.58991808
   -11.44829078     1.87449439   -19.80134219
   -52.54722150   -13.97833894    10.01399682
    28.96073432   -11.84473835    -5.72473402
   -34.98971930     0.13336301     5.40330354
   -29.99014168   -54.23374104   -11.55644536
    35.16651580    89.86427535    18.91808892
     0.00000000     0.00000000     0.00000000
     0.00000000     0.00000000     0.00000000
    35.56582389    29.62524963    24.18834869
     1.51830171   -28.35982806   -11.19822587
    14.88363855     8.92914134    -0.04638681
   -26.66836745   -36.33770849     5.48575248
    11.60275373    -5.81106702    10.62771400
    28.68171358   -26.21966989   -37.80422790
    27.63778761   -58.24237703    78.25078638
   148.41154734    71.10270309   -94.90527912
     0.00000000     0.00000000     0.00000000
     0.07844071     5.02254647    11.29010551
    26.53545977     6.72149388    -6.33089529
   -45.79994324   -31.90451593     1.19281860
    29.65710680    14.40415411     7.38562406
   -75.08846286   -77.11538808     5.09117190
    58.15178312   -10.04288738   -29.01436773
    45.12178752  -190.95286254    17.28019326
   -64.78908188   211.85021170   -80.34519182
     0.00000000     0.00000000     0.00000000
   -19.62577348    10.61790072    11.08483709
    -8.18913654   -14.47391452    -2.64736081
    -2.04139872     5.58124172     1.65464068
   -26.53415535   -35.16951509    12.40843148
   -39.16765833     4.21185668    14.57751166
   -59.18773432  -117.62416449   -24.00944994
   -31.59776494   -17.48968903     8.60090597
    34.52502351    98.35220449  -105.12502822
     0.00000000     0.00000000     0.00000000
   -19.35217189    13.54588133   -13.42723847
    -5.87876056    -9.34764574     5.47924087
   -27.30381115    -8.19906041    -3.03429897
   -14.62182670     5.21897169    17.50665264
   -67.02009890   -34.16980076    20.04748994
  -111.82641440    -2.56697388   -11.76091219
  -204.17878686    19.43013580   -20.12634062
  -234.85947845   204.75821001    -5.07622933
     0.00000000     0.00000000     0.00000000
     0.00000000     0.00000000     0.00000000
     0.00000000     0.00000000     0.00000000
     0.00000000     0.00000000     0.00000000
     0.00000000     0.00000000     0.00000000
     0.00000000     0.00000000     0.00000000
     0.00000000     0.00000000     0.00000000
     0.00000000     0.00000000     0.00000000
     0.00000000     0.00000000     0.00000000
     0.00000000     0.00000000     0.00000000
     0.00000000     0.00000000     0.00000000
     0.00000000     0.00000000     0.00000000
     0.00000000     0.00000000     0.00000000
     0.00000000     0.00000000     0.00000000
     0.00000000     0.00000000     0.00000000
     0.00000000     0.00000000     0.00000000
     0.00000000     0.00000000     0.00000000
     0.00000000     0.00000000     0.00000000
     0.00000000     0.00000000     0.00000000
     4.20184105     9.31325677    13.23678455
     6.61820554   -21.76846024     0.02328691
    21.09438797    16.41404730    -4.48907394
    -2.45693004   -14.52133460     5.75920268
    37.29456078    -2.27517381     0.03225308
    74.02431579    20.14258437    40.94898867
   -36.92744867     6.72584852    -4.84501108
  -476.30936345    19.00292213  -105.22642411
     0.00000000     0.00000000     0.00000000
    37.72487428   -23.70467354     9.90214318
   -24.73751826    13.60788829    -6.47492100
    19.23668922   -21.19075995     0.15947345
    -1.07265985    24.56944819    -1.40855221
    19.90431440   -41.44781079     8.51648408
    70.81899697     9.57955189    41.49585916
   -97.06997182   155.12080497   -24.47493985
   149.76768621   -32.21751168  -151.21462107
     0.00000000     0.00000000     0.00000000
   -28.10355271    -3.65501321    11.85676563
    14.99514818   -11.99623512    -0.49846717
    -5.34867709    12.18440905    -0.85572420
     2.47173433   -26.88007545    -0.41594066
    31.78595774    20.33186547    15.11661398
    -4.61686509   -86.71720529    35.21995018
   111.42769386   231.75764522   -55.66210509
  -149.33113363  -211.17203039   -65.01975904
     0.00000000     0.00000000     0.00000000
    34.43430205   -18.74188810    10.47752367
   -20.31331330     7.36011456    -1.43391530
    16.37765046   -11.35616246    -4.64181970
   -10.56029079     4.94264047     1.61482251
    -0.28248178   -29.92751646    27.83130228
    57.49529839   -30.69508559   -46.37107847
    99.98432603    74.61088117   100.64278514
   264.58247193   -26.25062574  -132.62502269
     0.00000000     0.00000000     0.00000000
   -57.00792644    -4.74123003    14.17109199
   -10.50089752     0.22876029    -5.91080396
   -36.38610726   -10.19645889     0.65837502
    16.39005376   -11.07248097     3.42274953
   -13.96819083    -4.23432040     0.91077218
   -54.12977365   -36.01332325   -31.09042781
    26.88863384    38.32652607     4.40533195
     0.00000000     0.00000000     0.00000000
     0.00000000     0.00000000     0.00000000
    31.91614931    17.77481355    12.66856129
   -32.82041899   -24.80969777    -6.15278084
    35.93061384     5.73653450     0.89781578
   -46.50293983   -26.44008906    -1.02161897
    46.46906025    -7.08438915    33.84118122
     3.53103107     2.51253780   -50.89298710
    72.10677191  -121.64219738   112.86024469
   137.55847290    59.41895473  -189.94386456
     0.00000000     0.00000000     0.00000000
    -1.00072201     4.41337877    13.48421929
     4.20071463     7.16556840    -0.27620605
   -25.90921895   -28.11471951     2.96357578
    17.01902125    10.81189292     1.63261827
   -29.05010090   -46.46598596    30.20194493
   -10.43025394   -19.30957698   -39.84494110
   113.15160957  -160.60460137     3.37583602
    11.50443275   166.07559130  -135.37800689
     0.00000000     0.00000000     0.00000000
     0.03658984     7.36442346     8.22648092
   -24.67426617   -14.57610087    -5.83085000
    22.32215409     6.82359959     4.10254252
   -31.18056727   -32.04374370     5.23977359
     7.39738841     8.86777701    43.07939711
  -109.07946669  -100.44538483   -28.34227406
   -67.53743803   -38.79381772   -69.22890383
    49.65871436   101.66764072  -147.78698391
     0.00000000     0.00000000     0.00000000
    20.93705229    11.05121749    18.17961281
     1.77814442    -5.50648160    -5.49927914
    -4.58301652    -9.36690505     6.44499980
    -8.22017207     5.70235408    11.34847221
   -23.04663534   -34.97340817    34.81022771
  -121.93983956    10.77180267    -4.58660619
  -206.99594525    27.54716034    -5.64463779
  -252.12933338   169.13563043     9.57488763
     0.00000000     0.00000000     0.00000000
     0.00000000     0.00000000     0.00000000
     0.00000000     0.00000000     0.00000000
     0.00000000     0.00000000     0.00000000
     0.00000000     0.00000000     0.00000000
     0.00000000     0.00000000     0.00000000
     0.00000000     0.00000000     0.00000000
     0.00000000     0.00000000     0.00000000
     0.00000000     0.00000000     0.00000000
     0.00000000     0.00000000     0.00000000
     0.00000000     0.00000000     0.00000000
     0.00000000     0.00000000     0.00000000
     0.00000000     0.00000000     0.00000000
     0.00000000     0.00000000     0.00000000
     0.00000000     0.00000000     0.00000000
     0.00000000     0.00000000     0.00000000
     0.00000000     0.00000000     0.00000000
     0.00000000     0.00000000     0.00000000
     0.00000000     0.00000000     0.00000000
   -14.42137730     8.28475450     3.89941754
    37.77367780   -25.36023836     9.29210010
     9.37420641    13.04541128    -9.81121202
    22.71530170   -10.71166073     6.14856458
    24.87972455    -2.95974654     8.42007721
    69.08836189    11.40492099   -16.13816107
   137.82275285     2.93561974    78.08083740
  -431.60485524    25.37130298   -99.14866367
     0.00000000     0.00000000     0.00000000
    22.62742165   -24.59140639    12.03722722
     7.73618709     9.71389614    -1.07880252
    -6.75254952   -14.92247218    -4.06118030
    40.61851730    12.79977860     1.86262240
   -40.83202176   -20.21522880     5.46429811
   140.82046537   -22.04346132    -4.14259582
   -59.21828767    42.67201081    88.59051545
    85.20265810   130.22952441  -159.19939636
     0.00000000     0.00000000     0.00000000
   -38.24871561     0.72445203     6.32757354
    25.56453881    -9.64293898     2.97341116
   -10.83244295    15.42026835    -8.37993761
    13.93738474   -35.68896781    10.32547110
    21.82612241    44.02796709    -3.96168613
    20.69725269  -108.48666500    24.29209032
    -2.90810236   295.67480248   -39.20122640
   -65.40975461  -144.65336271  -119.06696048
     0.00000000     0.00000000     0.00000000
    30.38192342   -17.61530001    15.44189356
   -29.32824870     1.22337705    -5.70666038
    24.48334481   -10.95578158     5.49311030
   -17.96707949     6.57496155   -11.80929575
    33.53272222   -36.14689255    41.30827439
    -3.22639820    -4.35829086   -53.78252498
   191.07943485    42.29437832    79.29779089
   192.09921289   -42.89006166    14.14782730
     0.00000000     0.00000000     0.00000000
   -34.99415089    -2.29936189    11.01633456
    19.64671264     2.45446363    -6.11273873
   -27.95689093   -12.52872101    -3.23564477
    33.05128253     0.86765001     4.58993147
   -27.87542229   -22.67652993     3.06541201
   -58.67450152     7.31514373   -50.75174798
   -29.14379621    51.08060674   -75.63467693
     0.00000000     0.00000000     0.00000000
     0.00000000     0.00000000     0.00000000
    -0.49531417    12.91640491    12.17404293
   -15.43576942   -15.54121453     1.81693407
    12.92173537     8.18722844    -5.91944386
    -6.24383576   -25.12506044     8.30512148
    -4.58204921    13.53095487    25.37714467
    63.51579262    -5.92234708   -54.03036734
    47.11694905   -14.88636034   167.30768043
   105.46039330    64.44854179  -219.14196849
     0.00000000     0.00000000     0.00000000
    -8.07056172     1.63028757     5.41741467
    19.49734715     3.53785467     3.80907553
   -30.77359328   -23.06184709    -3.15135859
    33.88432774     3.14031407     2.71950463
   -17.04489035   -14.08987425    29.30920545
    27.61453308     7.19392550   -20.70932624
    38.30523415  -163.75190040   -15.94308106
    39.97108950   201.25235819  -189.18336240
     0.00000000     0.00000000     0.00000000
   -21.08765746     6.48811040     7.24137105
     3.97237106   -11.24618975     1.67510289
    11.06060341     5.24119191    -0.35404390
   -10.01873409   -30.25375195     6.47654402
    15.83636608    31.85150042    30.47868176
    43.23080461   -66.89527682     9.49004790
  -130.89883575   -43.67818091   -45.66540172
   -35.25973167   136.50118564  -157.35639446
     0.00000000     0.00000000     0.00000000
    13.86295434    16.24521070    13.88763211
    31.23000110    -3.67709295     2.23612624
   -15.81102413    -3.38842435     5.28103917
    12.83092470    -1.18358470     3.89701904
     8.94011582   -11.60397100    39.01069823
    -4.07039822   -27.24001737     9.97983685
  -158.28235463     5.68634648    23.33090356
  -291.73143066   133.44645538    15.33263936
     0.00000000     0.00000000     0.00000000
     0.00000000     0.00000000     0.00000000
     0.00000000     0.00000000     0.00000000
     0.00000000     0.00000000     0.00000000
     0.00000000     0.00000000     0.00000000
     0.00000000     0.00000000     0.00000000
     0.00000000     0.00000000     0.00000000
     0.00000000     0.00000000     0.00000000
     0.00000000     0.00000000     0.00000000
     0.00000000     0.00000000     0.00000000
     0.00000000     0.00000000     0.00000000
     0.00000000     0.00000000     0.00000000
     0.00000000     0.00000000     0.00000000
     0.00000000     0.00000000     0.00000000
     0.00000000     0.00000000     0.00000000
     0.00000000     0.00000000     0.00000000
     0.00000000     0.00000000     0.00000000
     0.00000000     0.00000000     0.00000000
     0.00000000     0.00000000     0.00000000
    31.48502243   -11.21445820    23.49954777
    41.28416984   -14.39084924    -2.26851939
    48.39240934    -7.83920374    16.80290809
    -9.83178852     7.65880276   -17.22319800
    73.65991806   -18.11410634    24.52671200
    -5.14911772    28.38829948   -31.61525657
   192.35407882    -1.91455507    27.69424659
  -247.91444987    35.74628313   -11.36684244
     0.00000000     0.00000000     0.00000000
    44.08146607   -33.46741450    20.25214621
    11.70565199    13.23821195    -8.67602863
    11.28066327   -19.34506279    18.20618793
    26.08375221    15.20186860   -26.83867893
     2.37956537   -16.89480390    47.30328876
    76.68132199    -6.21047837   -80.79722406
   111.75822959    54.13463756   129.51954700
   -34.95454493   209.78319211  -109.48783095
     0.00000000     0.00000000     0.00000000
   -16.81571517    -3.61650347     4.32858585
    23.56453296   -10.60360314    -2.15684641
     5.43540085    11.41800970     6.03473006
     7.05745043   -30.79713394    -9.44096405
    55.41817527    29.07923447    13.10270060
    -2.88022253   -71.85327354   -26.01042638
    24.68087145    84.97655493   -42.99889023
   -12.88022088    17.98149503  -152.18251661
     0.00000000     0.00000000     0.00000000
    11.56277252     7.42287354    11.03177945
   -25.26146461    -5.62318566    -2.89337743
    23.10217548    -7.72552473     2.84121508
   -13.87858846     6.60401475    -3.00083509
    29.31475947   -45.14344928    12.85108486
    94.59211140    13.53949090    -9.26243512
    18.86512010    59.83031835    71.45468645
   416.51313071     3.88453996  -169.51737940
     0.00000000     0.00000000     0.00000000
    38.43019037    -9.43918968    27.11774016
    71.26750007     6.00119877     2.16270937
     5.78776580   -17.71104769     9.23392551
    43.64703457     9.86064108    -7.54013664
     9.03943796   -38.15840192    16.12647234
   -93.10853314    10.84024201   -43.37341586
   -98.28538378   110.46032821   -85.35487706
     0.00000000     0.00000000     0.00000000
     0.00000000     0.00000000     0.00000000
   -10.54438522    -7.15214701    12.29342264
   -24.93398955   -12.49810495   -10.36277436
    17.21903325     9.08453064    15.31987945
   -16.23904940   -31.22665511   -21.19942904
    27.74376316    26.52915299    53.94002990
    -7.66556340   -24.34467715   -87.16806781
   122.11546231   -83.94147818   229.16443348
    29.27963821    14.34815252  -270.54904996
     0.00000000     0.00000000     0.00000000
    23.99102330    12.62305776    14.11130420
    10.60734020    -1.42548230    -7.10851319
     4.39150848   -11.34537431    16.45339223
     0.21457658    -3.70100535   -18.94099219
    44.79546982   -10.75496794    38.45031594
   -14.49315574    31.93439599   -50.69430597
    25.79006135   -84.38667943    29.58791813
    -8.50839357   139.21030598  -202.04716498
     0.00000000     0.00000000     0.00000000
     4.56833118     7.20558537    13.87515072
    17.75402927    -3.56334505    -4.99218530
    19.74557276    -1.63926602    19.53767945
    -3.24038859   -12.76478233   -19.18125505
    21.91139117   -15.31621331    46.05294334
    97.85183456    31.33800915   -41.75631317
    71.64784694  -134.72408700    58.46099420
  -129.96463428    50.73282682  -107.37358680
     0.00000000     0.00000000     0.00000000
    57.98852964    32.96731462    30.96829017
    31.24509203    -7.98127009    -3.46441418
    29.42601516    10.40060817    24.96926909
     4.02960675   -14.50020628   -17.24277144
    36.15191200   -11.06618100    50.77615563
    76.88758225     2.55082131   -44.06551744
   101.34531225   -33.06049461   -17.11202512
  -274.45627505    92.10740987    42.01319517
     0.00000000     0.00000000     0.00000000
     0.00000000     0.00000000     0.00000000
     0.00000000     0.00000000     0.00000000
     0.00000000     0.00000000     0.00000000
     0.00000000     0.00000000     0.00000000
     0.00000000     0.00000000     0.00000000
     0.00000000     0.00000000     0.00000000
     0.00000000     0.00000000     0.00000000
     0.00000000     0.00000000     0.00000000
     0.00000000     0.00000000     0.00000000
     0.00000000     0.00000000     0.00000000
     0.00000000     0.00000000     0.00000000
     0.00000000     0.00000000     0.00000000
     0.00000000     0.00000000     0.00000000
     0.00000000     0.00000000     0.00000000
     0.00000000     0.00000000     0.00000000
     0.00000000     0.00000000     0.00000000
     0.00000000     0.00000000     0.00000000
     0.00000000     0.00000000     0.00000000
     0.00000000     0.00000000     0.00000000
     0.00000000     0.00000000     0.00000000
     0.00000000     0.00000000     0.00000000
     0.00000000     0.00000000     0.00000000
     0.00000000     0.00000000     0.00000000
     0.00000000     0.00000000     0.00000000
     0.00000000     0.00000000     0.00000000
     0.00000000     0.00000000     0.00000000
     0.00000000     0.00000000     0.00000000
     0.00000000     0.00000000     0.00000000
     0.00000000     0.00000000     0.00000000
     0.00000000     0.00000000     0.00000000
     0.00000000     0.00000000     0.00000000
     0.00000000     0.00000000     0.00000000
     0.00000000     0.00000000     0.00000000
     0.00000000     0.00000000     0.00000000
     0.00000000     0.00000000     0.00000000
     0.00000000     0.00000000     0.00000000
     0.00000000     0.00000000     0.00000000
     0.00000000     0.00000000     0.00000000
     0.00000000     0.00000000     0.00000000
     0.00000000     0.00000000     0.00000000
     0.00000000     0.00000000     0.00000000
     0.00000000     0.00000000     0.00000000
     0.00000000     0.00000000     0.00000000
     0.00000000     0.00000000     0.00000000
     0.00000000     0.00000000     0.00000000
     0.00000000     0.00000000     0.00000000
     0.00000000     0.00000000     0.00000000
     0.00000000     0.00000000     0.00000000
     0.00000000     0.00000000     0.00000000
     0.00000000     0.00000000     0.00000000
     0.00000000     0.00000000     0.00000000
     0.00000000     0.00000000     0.00000000
     0.00000000     0.00000000     0.00000000
     0.00000000     0.00000000     0.00000000
     0.00000000     0.00000000     0.00000000
     0.00000000     0.00000000     0.00000000
     0.00000000     0.00000000     0.00000000
     0.00000000     0.00000000     0.00000000
     0.00000000     0.00000000     0.00000000
     0.00000000     0.00000000     0.00000000
     0.00000000     0.00000000     0.00000000
     0.00000000     0.00000000     0.00000000
     0.00000000     0.00000000     0.00000000
     0.00000000     0.00000000     0.00000000
     0.00000000     0.00000000     0.00000000
     0.00000000     0.00000000     0.00000000
     0.00000000     0.00000000     0.00000000
     0.00000000     0.00000000     0.00000000
     0.00000000     0.00000000     0.00000000
     0.00000000     0.00000000     0.00000000
     0.00000000     0.00000000     0.00000000
     0.00000000     0.00000000     0.00000000
     0.00000000     0.00000000     0.00000000
     0.00000000     0.00000000     0.00000000
     0.00000000     0.00000000     0.00000000
     0.00000000     0.00000000     0.00000000
     0.00000000     0.00000000     0.00000000
     0.00000000     0.00000000     0.00000000
     0.00000000     0.00000000     0.00000000
     0.00000000     0.00000000     0.00000000
     0.00000000     0.00000000     0.00000000
     0.00000000     0.00000000     0.00000000
     0.00000000     0.00000000     0.00000000
     0.00000000     0.00000000     0.00000000
     0.00000000     0.00000000     0.00000000
     0.00000000     0.00000000     0.00000000
     0.00000000     0.00000000     0.00000000
     0.00000000     0.00000000     0.00000000
     0.00000000     0.00000000     0.00000000
     0.00000000     0.00000000     0.00000000
     0.00000000     0.00000000     0.00000000
     0.00000000     0.00000000     0.00000000
     0.00000000     0.00000000     0.00000000
     0.00000000     0.00000000     0.00000000
     0.00000000     0.00000000     0.00000000
     0.00000000     0.00000000     0.00000000
     0.00000000     0.00000000     0.00000000
     0.00000000     0.00000000     0.00000000
     0.00000000     0.00000000     0.00000000
     0.00000000     0.00000000     0.00000000
     0.00000000     0.00000000     0.00000000
     0.00000000     0.00000000     0.00000000
     0.00000000     0.00000000     0.00000000
     0.00000000     0.00000000     0.00000000
     0.00000000     0.00000000     0.00000000
     0.00000000     0.00000000     0.00000000
     0.00000000     0.00000000     0.00000000
     0.00000000     0.00000000     0.00000000
     0.00000000     0.00000000     0.00000000
     0.00000000     0.00000000     0.00000000
     0.00000000     0.00000000     0.00000000
     0.00000000     0.00000000     0.00000000
     0.00000000     0.00000000     0.00000000
     0.00000000     0.00000000     0.00000000
     0.00000000     0.00000000     0.00000000
     0.00000000     0.00000000     0.00000000
     0.00000000     0.00000000     0.00000000
     0.00000000     0.00000000     0.00000000
   -14.52918617    62.58777327     0.00000000
   -16.93549071   -43.68548199     0.00000000
   -32.79252324     9.91707293     0.00000000
   -23.33246379    -8.96392037     0.00000000
   -27.72000189   -13.38744926     0.00000000
   -23.56837989    -7.50102413     0.00000000
   -24.61408567    -7.92306717     0.00000000
   -22.87578687   -10.55433612     0.00000000
   -19.37911553    -9.31298736     0.00000000
   -19.49354612    -9.25468399     0.00000000
   -18.54579000    -4.96932000     0.00000000
   -19.47101392   209.20919177     0.00000000
     4.50875766    32.97433903     0.00000000
   -24.38238518   -47.29310640     0.00000000
   -17.74853285    -4.91342572     0.00000000
   -17.99453598    -7.49479020     0.00000000
   -28.85123560   -14.39738600     0.00000000
   -17.34690457   -15.77162300     0.00000000
   -21.57265705   -13.09854791     0.00000000
   -20.89230751   -13.79854243     0.00000000
   -25.83606902   -12.36318429     0.00000000
   -27.81867000    -7.45398000     0.00000000
    57.71269094   291.61263762     0.00000000
    39.69081807   217.70479811     0.00000000
   -18.13907109    40.95437288     0.00000000
   -66.29765917   -34.23096826     0.00000000
   -25.05559405   -34.09133030     0.00000000
   -10.60202807   -32.36459560     0.00000000
    -9.59143726   -14.08619351     0.00000000
   -18.82093022   -14.10009017     0.00000000
   -19.48814203    -8.96508816     0.00000000
   -27.74022139    -9.10532883     0.00000000
   -27.81867000    -7.45398000     0.00000000
   -92.25371681   198.48867371     0.00000000
    19.60708459   168.28918491     0.00000000
    62.11000689   107.39443983     0.00000000
    87.76097582    24.53626314     0.00000000
    47.25744363   -26.01082012     0.00000000
    19.83126217   -10.76709298     0.00000000
    -4.97707796    -6.96576950     0.00000000
    -5.53238202    -4.42402782     0.00000000
   -17.22299923    -5.35343515     0.00000000
   -14.67978774    -3.20389233     0.00000000
   -18.54579000    -4.96932000     0.00000000
     0.00000000     0.00000000     0.00000000
     0.00000000     0.00000000     0.00000000
     0.00000000     0.00000000     0.00000000
     0.00000000     0.00000000     0.00000000
     0.00000000     0.00000000     0.00000000
     0.00000000     0.00000000     0.00000000
     0.00000000     0.00000000     0.00000000
     0.00000000     0.00000000     0.00000000
     0.00000000     0.00000000     0.00000000
     0.00000000     0.00000000     0.00000000
     0.00000000     0.00000000     0.00000000
     0.00000000     0.00000000     0.00000000
     0.00000000     0.00000000     0.00000000
     0.00000000     0.00000000     0.00000000
     0.00000000     0.00000000     0.00000000
     0.00000000     0.00000000     0.00000000
     0.00000000     0.00000000     0.00000000
     0.00000000     0.00000000     0.00000000
     0.00000000     0.00000000     0.00000000
     0.00000000     0.00000000     0.00000000
     0.00000000     0.00000000     0.00000000
     0.00000000     0.00000000     0.00000000
    27.22266639    62.44842262    72.01188546
   -14.55473590   -48.08231205    22.96331205
   -26.49109178    23.33838278   -14.02928903
   -28.35234348   -20.45762098     9.57632511
   -23.64821866    -7.69513471    -2.66054655
   -25.69194333    -7.45547506     2.73641286
   -24.45123005    -8.94356615    -0.02384122
   -21.56671479    -9.26421287     0.87714155
   -20.46826217    -9.77584385     1.00774672
   -16.47031035    -8.04549720     1.21472543
   -17.51406000    -4.69287000     0.00000000
   -12.84185214   175.90806474    52.17588042
   -42.15996864   -48.09168574    -1.94118741
   -24.76241135   -10.50684145    21.63470144
   -12.43219167    -9.74060983    -1.51755321
   -31.26242747    -6.28629740     7.13646179
   -19.81818543   -16.82814891    -1.90352022
   -22.42566942   -13.43973012     3.06818611
   -17.53742418   -13.91551677     1.26824135
   -21.78968986   -12.74999917     2.69452518
   -22.95016902   -12.19935546     1.79358366
   -26.50323000    -7.10151000     0.00000000
   -31.09320693   301.36032776    14.52047633
   -26.33741317   113.56057752    -2.86485700
   -46.21405594   -19.18621873    10.96454698
   -47.09608048   -19.23717457   -14.67154265
   -22.10579016   -47.57238774     0.25778760
    -7.19892802   -22.00921778     2.88081535
   -14.58718474   -18.28660407     4.05639706
   -14.40115515   -10.67126193     2.59125371
   -22.00256363   -10.57427387     3.22778330
   -22.53523567    -7.30803556     2.23776485
   -26.50323000    -7.10151000     0.00000000
  -102.86104261   183.17864490    37.62758621
     6.08548212    93.49214278    44.32167086
    72.00076894    63.04940866    38.54657559
    70.50761973    -8.47876459    30.91234299
    48.69374881   -21.76207587    13.92332524
     8.10578370   -13.54603925     7.79589979
     1.50677137    -4.44396634     4.42185922
   -12.51463936    -7.27700600     4.12153859
   -11.25658197    -3.69118413     2.98719611
   -19.59567570    -4.79372811     2.97839731
   -17.51406000    -4.69287000     0.00000000
     0.00000000     0.00000000     0.00000000
     0.00000000     0.00000000     0.00000000
     0.00000000     0.00000000     0.00000000
     0.00000000     0.00000000     0.00000000
     0.00000000     0.00000000     0.00000000
     0.00000000     0.00000000     0.00000000
     0.00000000     0.00000000     0.00000000
     0.00000000     0.00000000     0.00000000
     0.00000000     0.00000000     0.00000000
     0.00000000     0.00000000     0.00000000
     0.00000000     0.00000000     0.00000000
     0.00000000     0.00000000     0.00000000
     0.00000000     0.00000000     0.00000000
     0.00000000     0.00000000     0.00000000
     0.00000000     0.00000000     0.00000000
     0.00000000     0.00000000     0.00000000
     0.00000000     0.00000000     0.00000000
     0.00000000     0.00000000     0.00000000
     0.00000000     0.00000000     0.00000000
     0.00000000     0.00000000     0.00000000
     0.00000000     0.00000000     0.00000000
     0.00000000     0.00000000     0.00000000
   -58.82416217    39.26003280   176.84557212
    -7.22333257   -73.05070751    13.83029895
   -31.55731083    40.80165714    -2.95749932
   -22.50799137   -31.49709458     5.95902529
   -28.36127267     3.85092685     2.21053754
   -25.31279867   -13.36965100     1.46590696
   -24.08464620    -5.57529922     0.68198745
   -21.81539460   -10.49902410     0.97676142
   -17.39787544    -7.40657405     1.46341128
   -16.39119159    -7.97842908     2.10848618
   -14.90328000    -3.99333000     0.00000000
   -65.69182090   176.58925528   110.21484630
   -10.45670571   -83.59795886   -21.28235307
   -48.20454006    14.32492515    30.55660640
   -27.07424159   -15.63237646    -0.05194063
   -27.76719606    -9.80312611     3.85576841
   -24.08855946   -16.13148323     1.56630033
   -17.58599241   -12.93710813     1.81332340
   -18.77156943   -11.92003038     3.69530887
   -17.79573591   -11.87763976     3.40667784
   -20.79885217   -10.85041882     3.54164836
   -22.71996000    -6.08781000     0.00000000
   -54.14481270   315.25226990    47.57051388
   -37.68515700    36.47425870   -12.99380306
   -38.30453421   -44.98754844    -0.29991732
   -34.96549586   -44.29064115    -3.69868445
    -9.00217841   -33.88426002     4.14305888
   -14.99412118   -23.42110506     7.47785786
   -11.21403836   -13.46689227     3.82962074
   -17.31001349   -12.74872531     5.49072556
   -16.21767367    -8.28804537     4.47575147
   -22.77919079    -7.88009293     4.28768241
   -22.71996000    -6.08781000     0.00000000
  -120.37212632   215.35375531    88.61839861
     9.69045651    56.98112602    45.64431348
    52.77481477   -19.22924056    51.01262429
    56.48967409   -29.99902195    36.08329699
    18.38318673   -23.19450035    22.13709004
     7.34376268    -8.32394172     9.78636292
    -9.21964497    -8.90636576     9.38949433
    -6.90631154    -5.48485734     4.62487677
   -15.56254215    -5.94623386     6.26526859
   -11.98540200    -3.45248616     4.68998921
   -14.90328000    -3.99333000     0.00000000
     0.00000000     0.00000000     0.00000000
     0.00000000     0.00000000     0.00000000
     0.00000000     0.00000000     0.00000000
     0.00000000     0.00000000     0.00000000
     0.00000000     0.00000000     0.00000000
     0.00000000     0.00000000     0.00000000
     0.00000000     0.00000000     0.00000000
     0.00000000     0.00000000     0.00000000
     0.00000000     0.00000000     0.00000000
     0.00000000     0.00000000     0.00000000
     0.00000000     0.00000000     0.00000000
     0.00000000     0.00000000     0.00000000
     0.00000000     0.00000000     0.00000000
     0.00000000     0.00000000     0.00000000
     0.00000000     0.00000000     0.00000000
     0.00000000     0.00000000     0.00000000
     0.00000000     0.00000000     0.00000000
     0.00000000     0.00000000     0.00000000
     0.00000000     0.00000000     0.00000000
     0.00000000     0.00000000     0.00000000
     0.00000000     0.00000000     0.00000000
     0.00000000     0.00000000     0.00000000
    10.05736178    19.71669008   224.40398375
   -32.52212605   -76.36633913   -18.00097861
   -25.34306523    42.16963112     5.23528222
   -30.35966622   -26.39874868     8.97947034
   -29.67217093     3.14067700     1.25607968
   -26.09215923   -12.78373592     0.84245472
   -24.12070333    -6.81804093     0.47246275
   -19.52763846    -8.16983216    -0.14067966
   -16.71972968    -6.99580804     1.43652256
   -11.34884118    -5.40012622     2.18375288
   -10.90554000    -2.92212000     0.00000000
   -36.89232898   103.69566121   167.87035832
   -27.79449287  -155.36634559   -53.69674106
   -70.54778040    63.77185844    67.46357810
   -22.45620795   -62.89287170   -31.51628830
   -35.28512151     8.31109764    20.77931868
   -17.05241728   -26.89678731    -8.99222827
   -20.57250480    -5.71016175     7.39234428
   -14.41603074   -13.41098620    -0.28547006
   -15.07496043    -8.49749159     4.95353269
   -14.59850860    -9.51022355     3.55382872
   -16.73892000    -4.48518000     0.00000000
   -69.04400935   281.49096293   136.10658065
   -33.81740921   -89.18331802   -47.69002427
   -35.79948084   -47.58171632    34.52508204
   -16.11126328   -43.74354443   -10.85920896
   -19.48662617   -25.48769351    17.98711137
   -12.24981538   -16.44796246     0.11986410
   -16.15475063   -14.67442155     7.14765002
   -12.27126456    -9.44873229     2.56801589
   -15.20323722    -8.79286836     5.80025144
   -13.98583450    -5.49863786     4.75587985
   -16.73892000    -4.48518000     0.00000000
   -99.49630333   146.10406195   107.81240730
    42.61181740   -41.76274947    60.33064665
    43.90674135   -38.67157711    31.56982788
     8.23771154   -24.99572264    34.34791148
     6.14887082   -16.42598467    10.95541003
    -9.45331753   -10.36570898    16.39267111
    -5.23680932    -8.58814660     4.57639014
   -13.50503977    -7.71951010     8.12089672
    -9.38391706    -5.59773038     4.41398190
   -12.93767391    -4.74327926     6.16560973
   -10.90554000    -2.92212000     0.00000000
     0.00000000     0.00000000     0.00000000
     0.00000000     0.00000000     0.00000000
     0.00000000     0.00000000     0.00000000
     0.00000000     0.00000000     0.00000000
     0.00000000     0.00000000     0.00000000
     0.00000000     0.00000000     0.00000000
     0.00000000     0.00000000     0.00000000
     0.00000000     0.00000000     0.00000000
     0.00000000     0.00000000     0.00000000
     0.00000000     0.00000000     0.00000000
     0.00000000     0.00000000     0.00000000
     0.00000000     0.00000000     0.00000000
     0.00000000     0.00000000     0.00000000
     0.00000000     0.00000000     0.00000000
     0.00000000     0.00000000     0.00000000
     0.00000000     0.00000000     0.00000000
     0.00000000     0.00000000     0.00000000
     0.00000000     0.00000000     0.00000000
     0.00000000     0.00000000     0.00000000
     0.00000000     0.00000000     0.00000000
     0.00000000     0.00000000     0.00000000
     0.00000000     0.00000000     0.00000000
  -144.32388254   110.90195220   423.68352819
    -2.22662614  -104.30720467   -62.54512429
   -46.76650892    53.77532009    30.73495103
   -36.57462044   -40.27374648    -7.72616874
   -29.51802694     7.59479022     4.05696013
   -26.89313646   -18.10144827    -2.11496573
   -22.04841306    -3.22676643    -0.80664474
   -19.24209903    -9.67494581    -0.23877347
   -14.37159490    -4.09157192    -0.90853576
    -8.58874772    -5.20031101     0.71323294
    -5.81406000     0.00000000     0.00000000
  -119.97381531   201.49898171   246.44851315
   -43.58798245  -154.47238790   -26.73932890
  -101.09924810    72.21353443    30.87493734
   -17.45049601   -78.34381635   -14.68165648
   -40.76578695    14.37685239     5.84448726
   -18.70562230   -28.15162129    -1.35222018
   -21.70116769    -5.60116227    -0.16218777
   -15.41503795   -11.97554658     0.99372029
   -13.41397102    -7.89348843     0.71258163
    -9.74164915    -7.47876217     1.78261617
    -8.98422000    -2.40732000     0.00000000
  -145.61400385   348.35233743   208.81035133
   -42.18834847  -164.32095175   -16.87143289
   -49.19271244     3.34184293     9.64006276
   -17.02466337   -56.97691239     6.91926538
   -29.34448985   -10.00572441     0.68782109
   -15.43353053   -23.66953104     5.27108677
   -17.43434771   -10.61074127    -0.13467815
   -14.24365342   -12.50870504     3.58550218
   -11.62287791    -8.16128360     1.35204577
    -9.77638525    -6.15073279     3.14580231
    -8.98422000    -2.40732000     0.00000000
  -163.54749346   190.14379388    70.49254927
    58.89752793   -86.60694766    43.50094658
   -17.80986864   -21.57995597    28.95129413
    -6.56995589   -17.64724650     3.38748021
   -12.72396677   -18.60706200    19.45775276
   -10.66340989   -10.69757896     1.37259892
   -12.68262329   -10.26264017     9.92820410
   -10.56157914    -7.92535923     1.13729470
   -11.82400252    -6.54822222     5.46485025
    -6.58653286    -5.65736089     2.92503674
    -5.81406000     0.00000000     0.00000000
     0.00000000     0.00000000     0.00000000
     0.00000000     0.00000000     0.00000000
     0.00000000     0.00000000     0.00000000
     0.00000000     0.00000000     0.00000000
     0.00000000     0.00000000     0.00000000
     0.00000000     0.00000000     0.00000000
     0.00000000     0.00000000     0.00000000
     0.00000000     0.00000000     0.00000000
     0.00000000     0.00000000     0.00000000
     0.00000000     0.00000000     0.00000000
     0.00000000     0.00000000     0.00000000
     0.00000000     0.00000000     0.00000000
     0.00000000     0.00000000     0.00000000
     0.00000000     0.00000000     0.00000000
     0.00000000     0.00000000     0.00000000
     0.00000000     0.00000000     0.00000000
     0.00000000     0.00000000     0.00000000
     0.00000000     0.00000000     0.00000000
     0.00000000     0.00000000     0.00000000
     0.00000000     0.00000000     0.00000000
     0.00000000     0.00000000     0.00000000
     0.00000000     0.00000000     0.00000000
     0.00000000     0.00000000     0.00000000
     0.00000000     0.00000000     0.00000000
     0.00000000     0.00000000     0.00000000
     0.00000000     0.00000000     0.00000000
     0.00000000     0.00000000     0.00000000
     0.00000000     0.00000000     0.00000000
     0.00000000     0.00000000     0.00000000
     0.00000000     0.00000000     0.00000000
     0.00000000     0.00000000     0.00000000
     0.00000000     0.00000000     0.00000000
     0.00000000     0.00000000     0.00000000
     0.00000000     0.00000000     0.00000000
     0.00000000     0.00000000     0.00000000
     0.00000000     0.00000000     0.00000000
     0.00000000     0.00000000     0.00000000
     0.00000000     0.00000000     0.00000000
     0.00000000     0.00000000     0.00000000
     0.00000000     0.00000000     0.00000000
     0.00000000     0.00000000     0.00000000
     0.00000000     0.00000000     0.00000000
     0.00000000     0.00000000     0.00000000
     0.00000000     0.00000000     0.00000000
     0.00000000     0.00000000     0.00000000
     0.00000000     0.00000000     0.00000000
     0.00000000     0.00000000     0.00000000
     0.00000000     0.00000000     0.00000000
     0.00000000     0.00000000     0.00000000
     0.00000000     0.00000000     0.00000000
     0.00000000     0.00000000     0.00000000
     0.00000000     0.00000000     0.00000000
     0.00000000     0.00000000     0.00000000
     0.00000000     0.00000000     0.00000000
     0.00000000     0.00000000     0.00000000
     0.00000000     0.00000000     0.00000000
     0.00000000     0.00000000     0.00000000
     0.00000000     0.00000000     0.00000000
     0.00000000     0.00000000     0.00000000
     0.00000000     0.00000000     0.00000000
     0.00000000     0.00000000     0.00000000
     0.00000000     0.00000000     0.00000000
     0.00000000     0.00000000     0.00000000
     0.00000000     0.00000000     0.00000000
     0.00000000     0.00000000     0.00000000
     0.00000000     0.00000000     0.00000000
     0.00000000     0.00000000     0.00000000
     0.00000000     0.00000000     0.00000000
     0.00000000     0.00000000     0.00000000
     0.00000000     0.00000000     0.00000000
     0.00000000     0.00000000     0.00000000
     0.00000000     0.00000000     0.00000000
     0.00000000     0.00000000     0.00000000
     0.00000000     0.00000000     0.00000000
     0.00000000     0.00000000     0.00000000
     0.00000000     0.00000000     0.00000000
     0.00000000     0.00000000     0.00000000
     0.00000000     0.00000000     0.00000000
     0.00000000     0.00000000     0.00000000
     0.00000000     0.00000000     0.00000000
     0.00000000     0.00000000     0.00000000
     0.00000000     0.00000000     0.00000000
     0.00000000     0.00000000     0.00000000
     0.00000000     0.00000000     0.00000000
     0.00000000     0.00000000     0.00000000
   -51.79914105  -358.72279015     0.00000000
  -172.73959674   186.15677062     0.00000000
  -275.31307706    -2.72637655     0.00000000
  -186.03956350   191.95146203     0.00000000
  -180.11358364    46.90905881     0.00000000
   -84.72531834   172.26894615     0.00000000
   -38.94876629     4.67602501     0.00000000
   -23.22168378    73.13772771     0.00000000
     0.00000000     0.00000000     0.00000000
   -34.60424342  -538.37697721     0.00000000
   -57.99911429   -19.45022937     0.00000000
  -204.78291951    46.54834805     0.00000000
   -95.26093156   146.99766733     0.00000000
   -32.75414285   169.74451732     0.00000000
    82.70388094   151.48232307     0.00000000
    -4.21908460    89.69858325     0.00000000
    96.02399645    64.35020804     0.00000000
     0.00000000     0.00000000     0.00000000
   124.40990061  -697.05762150     0.00000000
   -98.11903646  -294.21196461     0.00000000
  -118.60148875    83.35902525     0.00000000
    11.34845400   131.96701757     0.00000000
   134.16187269   180.58843589     0.00000000
   112.00091370    96.25555371     0.00000000
   119.98945805    81.71274561     0.00000000
    25.53006931    49.29185982     0.00000000
     0.00000000     0.00000000     0.00000000
   -68.30553293  -435.39511355     0.00000000
   438.33983568  -297.54399690     0.00000000
   539.02554280  -138.35062619     0.00000000
   489.84088587    -8.40960444     0.00000000
   284.71792213    -7.56002651     0.00000000
   240.67731627    15.53568157     0.00000000
    47.06736704    13.98667779     0.00000000
    99.12275007    -0.72861606     0.00000000
     0.00000000     0.00000000     0.00000000
     0.00000000     0.00000000     0.00000000
     0.00000000     0.00000000     0.00000000
     0.00000000     0.00000000     0.00000000
     0.00000000     0.00000000     0.00000000
     0.00000000     0.00000000     0.00000000
     0.00000000     0.00000000     0.00000000
     0.00000000     0.00000000     0.00000000
     0.00000000     0.00000000     0.00000000
     0.00000000     0.00000000     0.00000000
     0.00000000     0.00000000     0.00000000
     0.00000000     0.00000000     0.00000000
     0.00000000     0.00000000     0.00000000
     0.00000000     0.00000000     0.00000000
     0.00000000     0.00000000     0.00000000
     0.00000000     0.00000000     0.00000000
     0.00000000     0.00000000     0.00000000
     0.00000000     0.00000000     0.00000000
     0.00000000     0.00000000     0.00000000
   -75.71568085  -335.83241371    10.21185971
  -210.23535030   223.32902799   144.50517421
  -280.60950041   -37.47282662   -60.42406124
  -182.30053345   212.30918406    69.50721190
  -202.87798312     4.79034840    -6.65873242
   -75.28472138   181.01450694    33.57970977
   -68.92878879     5.81537305     4.48557726
    -9.42351470    48.40573355     9.82142155
     0.00000000     0.00000000     0.00000000
  -116.07625906  -526.64375626    42.32285653
   -62.86437222    21.59963505    20.14950776
  -178.19908827   -52.31998722    -8.36331811
   -90.86020241   225.24355394   -67.98919652
    20.68083294   118.80124951   -16.91661993
    46.26312395   187.81138760    -2.86569785
    60.64865789    65.85134129     3.07057296
    19.21640121    74.90121559    28.05693042
     0.00000000     0.00000000     0.00000000
    60.09077002  -700.55568475    43.86584769
  -146.03705639  -278.75573353   126.94938051
   -48.76080066    85.81125580   -48.79624431
   132.24917367   116.10415571   -58.77796436
   182.21184507   196.40382395   -31.61641594
   131.69005969    74.95223390    -9.78276647
   108.87619541    98.09037046     5.17590528
    36.37839868    37.52592333    23.90028205
     0.00000000     0.00000000     0.00000000
   -68.08783471  -497.67890805     3.96766380
   427.48929436  -242.79604878    -1.74579718
   562.38415249  -113.11585411    23.16834290
   422.05204130    18.28577190     9.21375039
   313.95453418   -32.42721105    12.39861668
   146.15557094    49.23251188     9.55449731
   138.39059240   -14.20789475     9.35935699
   -24.84996788    25.64776378    21.90969921
     0.00000000     0.00000000     0.00000000
     0.00000000     0.00000000     0.00000000
     0.00000000     0.00000000     0.00000000
     0.00000000     0.00000000     0.00000000
     0.00000000     0.00000000     0.00000000
     0.00000000     0.00000000     0.00000000
     0.00000000     0.00000000     0.00000000
     0.00000000     0.00000000     0.00000000
     0.00000000     0.00000000     0.00000000
     0.00000000     0.00000000     0.00000000
     0.00000000     0.00000000     0.00000000
     0.00000000     0.00000000     0.00000000
     0.00000000     0.00000000     0.00000000
     0.00000000     0.00000000     0.00000000
     0.00000000     0.00000000     0.00000000
     0.00000000     0.00000000     0.00000000
     0.00000000     0.00000000     0.00000000
     0.00000000     0.00000000     0.00000000
     0.00000000     0.00000000     0.00000000
  -272.25652498  -285.22257397    90.13569231
  -210.02835522   284.63007409   163.42544108
  -297.60251840  -144.50357861   -48.62374067
  -190.51785353   279.11312974    76.16040316
  -218.59567722  -114.81614810    13.73252913
   -92.93377074   235.71826353    28.01599861
   -51.33473163   -90.99012134    27.26820989
   -56.39378810    76.57396560    -2.80311270
     0.00000000     0.00000000     0.00000000
  -262.45043185  -418.95142918    91.61182922
  -121.19168961   214.50066946   -81.18805011
  -253.66002149  -181.92410871    14.04079321
   -60.74441145   308.56549521  -132.42299107
   -54.01880471    69.66247218    38.75274163
    71.78738599   184.18850617     0.56136842
   -67.62772426    43.28042886    25.18047587
   103.08179484    55.17121974    60.51803135
     0.00000000     0.00000000     0.00000000
   -30.38825519  -728.83034262   112.78378826
  -191.83919331   -67.15578416   169.28836177
    57.64744660    83.85510039  -126.65733633
   249.73332954   108.41247298   -72.28555653
   202.92109390   196.84695545   -55.28908843
   108.51901502    66.80678142    -2.44034042
   104.83329355   101.95816304    18.36931076
   -10.94025175    47.32785868    20.69667267
     0.00000000     0.00000000     0.00000000
  -102.95321166  -533.68609248    17.16327582
   511.85786095  -195.03092154   -13.17013388
   544.31617069   -16.32275472    18.32984219
   431.82278875     1.52139495    18.79854716
   238.70744808   -24.85857799    18.23258180
   218.74136612    41.48737883    18.06521417
    -0.43930740     8.19573088    25.95891193
    76.83346427     3.35291100    33.43502543
     0.00000000     0.00000000     0.00000000
     0.00000000     0.00000000     0.00000000
     0.00000000     0.00000000     0.00000000
     0.00000000     0.00000000     0.00000000
     0.00000000     0.00000000     0.00000000
     0.00000000     0.00000000     0.00000000
     0.00000000     0.00000000     0.00000000
     0.00000000     0.00000000     0.00000000
     0.00000000     0.00000000     0.00000000
     0.00000000     0.00000000     0.00000000
     0.00000000     0.00000000     0.00000000
     0.00000000     0.00000000     0.00000000
     0.00000000     0.00000000     0.00000000
     0.00000000     0.00000000     0.00000000
     0.00000000     0.00000000     0.00000000
     0.00000000     0.00000000     0.00000000
     0.00000000     0.00000000     0.00000000
     0.00000000     0.00000000     0.00000000
     0.00000000     0.00000000     0.00000000
  -438.95898461  -203.95336421    91.73186968
  -190.25625644   304.77011285   103.72939788
  -302.25647241  -225.99490465     1.16372118
  -201.31383906   285.10294943    46.15831998
  -248.34410410  -158.99804911    24.65891452
   -73.12600942   257.38386641     4.30216488
  -105.85492343  -152.63213953    39.96000988
   -44.85574003   115.18095045   -23.65752125
     0.00000000     0.00000000     0.00000000
  -302.90046572  -417.31538840   184.01131103
  -218.43189817   405.09832216  -201.34115031
  -325.45368282  -213.10385703    69.67894976
  -146.45225259   367.69579456  -169.15260569
  -142.50826382   -79.15206025   121.18562603
   -29.01671620   231.03610843   -34.26532482
   -45.84197789   -46.52553913    90.96033322
    33.76280011    74.29858646    50.87480347
     0.00000000     0.00000000     0.00000000
   -90.06071704  -733.94432060   213.34019340
  -103.66942826    39.40787662    23.77367122
   147.58682186   119.01896186  -158.80013488
   131.63252664    78.40723506    -3.25447812
    31.10664906   198.94561745   -68.08939883
    -7.64872700    29.39447144    22.00363088
    18.63087944   132.07706837     2.48237883
   -29.42929703     6.53521721     1.09499332
     0.00000000     0.00000000     0.00000000
  -137.25687738  -533.53132909    44.67463941
   564.09732383  -130.08268039   -96.98012745
   589.15978887   -83.02187284    26.71366829
   370.65003602     5.47455920     1.09005517
   313.14851068   -29.85960627    27.73239051
   108.89318707    61.87073276    36.54546098
    85.81443581   -20.52623668    40.62477268
   -32.64919883    39.58079102    36.92080087
     0.00000000     0.00000000     0.00000000
     0.00000000     0.00000000     0.00000000
     0.00000000     0.00000000     0.00000000
     0.00000000     0.00000000     0.00000000
     0.00000000     0.00000000     0.00000000
     0.00000000     0.00000000     0.00000000
     0.00000000     0.00000000     0.00000000
     0.00000000     0.00000000     0.00000000
     0.00000000     0.00000000     0.00000000
     0.00000000     0.00000000     0.00000000
     0.00000000     0.00000000     0.00000000
     0.00000000     0.00000000     0.00000000
     0.00000000     0.00000000     0.00000000
     0.00000000     0.00000000     0.00000000
     0.00000000     0.00000000     0.00000000
     0.00000000     0.00000000     0.00000000
     0.00000000     0.00000000     0.00000000
     0.00000000     0.00000000     0.00000000
     0.00000000     0.00000000     0.00000000
  -463.45879523  -226.51422177   148.77383990
  -184.29104708   338.78537918   -66.84775054
  -274.67690573  -248.65230305   110.40183410
  -231.73137366   286.07685142   -53.97344142
  -216.59199826  -133.55833425    58.58505852
  -117.20771595   206.97433879   -43.36703710
   -47.62798488  -118.00714248    44.87678515
  -106.35829105   111.70164971   -35.17249220
     0.00000000     0.00000000     0.00000000
  -132.76976022  -472.17252040   182.39024646
  -223.08364165   264.80601300  -128.95437083
  -372.70611330   -60.01458318    58.18305692
  -132.07020857   213.61361103  -104.33523345
  -254.54573019   -36.74063448    92.01841218
   -37.58937280   158.66026241   -53.81888189
  -180.92119589   -90.10458401    94.22956478
   123.14003419    34.72469430     9.91760633
     0.00000000     0.00000000     0.00000000
  -103.95855149  -726.89465486   147.80747266
    90.53384870   -60.49861402  -116.54254538
   -50.57100929   155.58716827    -3.39031550
  -202.25933353   111.20681910   -26.39627316
   -84.83036356   157.12888600     8.43833809
  -147.08440010    36.21663223    -9.36680453
   -13.43408919    42.51815084   -10.51333312
   -56.03541745    19.93067465    -9.69411302
     0.00000000     0.00000000     0.00000000
  -111.96899971  -436.29011174   -42.93298975
   674.58746437  -134.37013616  -130.19934562
   388.87629850  -135.22415400    72.77128154
   322.01119498    22.65153677   -35.30261147
    38.80815456    17.89151873    79.27840794
    34.70013217    47.10768086   -12.33853127
   -52.44718944    52.87551382    69.12113484
    48.18552126    22.27269633    18.65943733
     0.00000000     0.00000000     0.00000000
     0.00000000     0.00000000     0.00000000
     0.00000000     0.00000000     0.00000000
     0.00000000     0.00000000     0.00000000
     0.00000000     0.00000000     0.00000000
     0.00000000     0.00000000     0.00000000
     0.00000000     0.00000000     0.00000000
     0.00000000     0.00000000     0.00000000
     0.00000000     0.00000000     0.00000000
     0.00000000     0.00000000     0.00000000
     0.00000000     0.00000000     0.00000000
     0.00000000     0.00000000     0.00000000
     0.00000000     0.00000000     0.00000000
     0.00000000     0.00000000     0.00000000
     0.00000000     0.00000000     0.00000000
     0.00000000     0.00000000     0.00000000
     0.00000000     0.00000000     0.00000000
     0.00000000     0.00000000     0.00000000
     0.00000000     0.00000000     0.00000000
     0.00000000     0.00000000     0.00000000
     0.00000000     0.00000000     0.00000000
     0.00000000     0.00000000     0.00000000
     0.00000000     0.00000000     0.00000000
     0.00000000     0.00000000     0.00000000
     0.00000000     0.00000000     0.00000000
     0.00000000     0.00000000     0.00000000
     0.00000000     0.00000000     0.00000000
     0.00000000     0.00000000     0.00000000
     0.00000000     0.00000000     0.00000000
     0.00000000     0.00000000     0.00000000
     0.00000000     0.00000000     0.00000000
     0.00000000     0.00000000     0.00000000
     0.00000000     0.00000000     0.00000000
     0.00000000     0.00000000     0.00000000
     0.00000000     0.00000000     0.00000000
     0.00000000     0.00000000     0.00000000
     0.00000000     0.00000000     0.00000000
     0.00000000     0.00000000     0.00000000
     0.00000000     0.00000000     0.00000000
     0.00000000     0.00000000     0.00000000
     0.00000000     0.00000000     0.00000000
     0.00000000     0.00000000     0.00000000
     0.00000000     0.00000000     0.00000000
     0.00000000     0.00000000     0.00000000
     0.00000000     0.00000000     0.00000000
     0.00000000     0.00000000     0.00000000
     0.00000000     0.00000000     0.00000000
     0.00000000     0.00000000     0.00000000
     0.00000000     0.00000000     0.00000000
     0.00000000     0.00000000     0.00000000
     0.00000000     0.00000000     0.00000000
     0.00000000     0.00000000     0.00000000
     0.00000000     0.00000000     0.00000000
     0.00000000     0.00000000     0.00000000
     0.00000000     0.00000000     0.00000000
     0.00000000     0.00000000     0.00000000
     0.00000000     0.00000000     0.00000000
     0.00000000     0.00000000     0.00000000
     0.00000000     0.00000000     0.00000000
     0.00000000     0.00000000     0.00000000
     0.00000000     0.00000000     0.00000000
     0.00000000     0.00000000     0.00000000
     0.00000000     0.00000000     0.00000000
     0.00000000     0.00000000     0.00000000
     0.00000000     0.00000000     0.00000000
     0.00000000     0.00000000     0.00000000
     0.00000000     0.00000000     0.00000000
     0.00000000     0.00000000     0.00000000
     0.00000000     0.00000000     0.00000000
     0.00000000     0.00000000     0.00000000
     0.00000000     0.00000000     0.00000000
     0.00000000     0.00000000     0.00000000
     0.00000000     0.00000000     0.00000000
     0.00000000     0.00000000     0.00000000
     0.00000000     0.00000000     0.00000000
     0.00000000     0.00000000     0.00000000
     0.00000000     0.00000000     0.00000000
     0.00000000     0.00000000     0.00000000
     0.00000000     0.00000000     0.00000000
     0.00000000     0.00000000     0.00000000
     0.00000000     0.00000000     0.00000000
     0.00000000     0.00000000     0.00000000
     0.00000000     0.00000000     0.00000000
     0.00000000     0.00000000     0.00000000
     0.00000000     0.00000000     0.00000000
     0.00000000     0.00000000     0.00000000
     0.00000000     0.00000000     0.00000000
     0.00000000     0.00000000     0.00000000
     0.00000000     0.00000000     0.00000000
     0.00000000     0.00000000     0.00000000
     0.00000000     0.00000000     0.00000000
     0.00000000     0.00000000     0.00000000
     0.00000000     0.00000000     0.00000000
     0.00000000     0.00000000     0.00000000
     0.00000000     0.00000000     0.00000000
     0.00000000     0.00000000     0.00000000
     0.00000000     0.00000000     0.00000000
     0.00000000     0.00000000     0.00000000
     0.00000000     0.00000000     0.00000000
     0.00000000     0.00000000     0.00000000
     0.00000000     0.00000000     0.00000000
     0.00000000     0.00000000     0.00000000
     0.00000000     0.00000000     0.00000000
     0.00000000     0.00000000     0.00000000
     0.00000000     0.00000000     0.00000000
     0.00000000     0.00000000     0.00000000
     0.00000000     0.00000000     0.00000000
     0.00000000     0.00000000     0.00000000
     0.00000000     0.00000000     0.00000000
     0.00000000     0.00000000     0.00000000
     0.00000000     0.00000000     0.00000000
     0.00000000     0.00000000     0.00000000
     0.00000000     0.00000000     0.00000000
     0.00000000     0.00000000     0.00000000
     0.00000000     0.00000000     0.00000000
     0.00000000     0.00000000     0.00000000
     0.00000000     0.00000000     0.00000000
     0.00000000     0.00000000     0.00000000
     0.00000000     0.00000000     0.00000000
     0.00000000     0.00000000     0.00000000
     0.00000000     0.00000000     0.00000000
     0.00000000     0.00000000     0.00000000
     0.00000000     0.00000000     0.00000000
     0.00000000     0.00000000     0.00000000
     0.00000000     0.00000000     0.00000000
     0.00000000     0.00000000     0.00000000
     0.00000000     0.00000000     0.00000000
     0.00000000     0.00000000     0.00000000
     0.00000000     0.00000000     0.00000000
     0.00000000     0.00000000     0.00000000
     0.00000000     0.00000000     0.00000000
     0.00000000     0.00000000     0.00000000
     0.00000000     0.00000000     0.00000000
     0.00000000     0.00000000     0.00000000
     0.00000000     0.00000000     0.00000000
     0.00000000     0.00000000     0.00000000
     0.00000000     0.00000000     0.00000000
     0.00000000     0.00000000     0.00000000
     0.00000000     0.00000000     0.00000000
     0.00000000     0.00000000     0.00000000
     0.00000000     0.00000000     0.00000000
     0.00000000     0.00000000     0.00000000
     0.00000000     0.00000000     0.00000000
     0.00000000     0.00000000     0.00000000
     0.00000000     0.00000000     0.00000000
     0.00000000     0.00000000     0.00000000
     0.00000000     0.00000000     0.00000000
     0.00000000     0.00000000     0.00000000
     0.00000000     0.00000000     0.00000000
     0.00000000     0.00000000     0.00000000
     0.00000000     0.00000000     0.00000000
     0.00000000     0.00000000     0.00000000
     0.00000000     0.00000000     0.00000000
     0.00000000     0.00000000     0.00000000
     0.00000000     0.00000000     0.00000000
     0.00000000     0.00000000     0.00000000
     0.00000000     0.00000000     0.00000000
     0.00000000     0.00000000     0.00000000
     0.00000000     0.00000000     0.00000000
     0.00000000     0.00000000     0.00000000
     0.00000000     0.00000000     0.00000000
     0.00000000     0.00000000     0.00000000
     0.00000000     0.00000000     0.00000000
     0.00000000     0.00000000     0.00000000
     0.00000000     0.00000000     0.00000000
     0.00000000     0.00000000     0.00000000
     0.00000000     0.00000000     0.00000000
     0.00000000     0.00000000     0.00000000
     0.00000000     0.00000000     0.00000000
     0.00000000     0.00000000     0.00000000
     0.00000000     0.00000000     0.00000000
     0.00000000     0.00000000     0.00000000
     0.00000000     0.00000000     0.00000000
     0.00000000     0.00000000     0.00000000
     0.00000000     0.00000000     0.00000000
     0.00000000     0.00000000     0.00000000
     0.00000000     0.00000000     0.00000000
     0.00000000     0.00000000     0.00000000
     0.00000000     0.00000000     0.00000000
     0.00000000     0.00000000     0.00000000
     0.00000000     0.00000000     0.00000000
     0.00000000     0.00000000     0.00000000
     0.00000000     0.00000000     0.00000000
     0.00000000     0.00000000     0.00000000
     0.00000000     0.00000000     0.00000000
     0.00000000     0.00000000     0.00000000
     0.00000000     0.00000000     0.00000000
     0.00000000     0.00000000     0.00000000
     0.00000000     0.00000000     0.00000000
     0.00000000     0.00000000     0.00000000
     0.00000000     0.00000000     0.00000000
     0.00000000     0.00000000     0.00000000
     0.00000000     0.00000000     0.00000000
     0.00000000     0.00000000     0.00000000
     0.00000000     0.00000000     0.00000000
     0.00000000     0.00000000     0.00000000
     0.00000000     0.00000000     0.00000000
     0.00000000     0.00000000     0.00000000
     0.00000000     0.00000000     0.00000000
     0.00000000     0.00000000     0.00000000
     0.00000000     0.00000000     0.00000000
     0.00000000     0.00000000     0.00000000
     0.00000000     0.00000000     0.00000000
     0.00000000     0.00000000     0.00000000
     0.00000000     0.00000000     0.00000000
     0.00000000     0.00000000     0.00000000
     0.00000000     0.00000000     0.00000000
     0.00000000     0.00000000     0.00000000
     0.00000000     0.00000000     0.00000000
     0.00000000     0.00000000     0.00000000
     0.00000000     0.00000000     0.00000000
     0.00000000     0.00000000     0.00000000
     0.00000000     0.00000000     0.00000000
     0.00000000     0.00000000     0.00000000
     0.00000000     0.00000000     0.00000000
     0.00000000     0.00000000     0.00000000
     0.00000000     0.00000000     0.00000000
     0.00000000     0.00000000     0.00000000
     0.00000000     0.00000000     0.00000000
     0.00000000     0.00000000     0.00000000
     0.00000000     0.00000000     0.00000000
     0.00000000     0.00000000     0.00000000
     0.00000000     0.00000000     0.00000000
     0.00000000     0.00000000     0.00000000
     0.00000000     0.00000000     0.00000000
     0.00000000     0.00000000     0.00000000
     0.00000000     0.00000000     0.00000000
     0.00000000     0.00000000     0.00000000
     0.00000000     0.00000000     0.00000000
     0.00000000     0.00000000     0.00000000
     0.00000000     0.00000000     0.00000000
     0.00000000     0.00000000     0.00000000
     0.00000000     0.00000000     0.00000000
     0.00000000     0.00000000     0.00000000
     0.00000000     0.00000000     0.00000000
     0.00000000     0.00000000     0.00000000
     0.00000000     0.00000000     0.00000000
     0.00000000     0.00000000     0.00000000
     0.00000000     0.00000000     0.00000000
     0.00000000     0.00000000     0.00000000
     0.00000000     0.00000000     0.00000000
     0.00000000     0.00000000     0.00000000
     0.00000000     0.00000000     0.00000000
     0.00000000     0.00000000     0.00000000
     0.00000000     0.00000000     0.00000000
     0.00000000     0.00000000     0.00000000
     0.00000000     0.00000000     0.00000000
     0.00000000     0.00000000     0.00000000
     0.00000000     0.00000000     0.00000000
     0.00000000     0.00000000     0.00000000
     0.00000000     0.00000000     0.00000000
     0.00000000     0.00000000     0.00000000
     0.00000000     0.00000000     0.00000000
     0.00000000     0.00000000     0.00000000
     0.00000000     0.00000000     0.00000000
     0.00000000     0.00000000     0.00000000
     0.00000000     0.00000000     0.00000000
     0.00000000     0.00000000     0.00000000
     0.00000000     0.00000000     0.00000000
     0.00000000     0.00000000     0.00000000
     0.00000000     0.00000000     0.00000000
     0.00000000     0.00000000     0.00000000
     0.00000000     0.00000000     0.00000000
     0.00000000     0.00000000     0.00000000
     0.00000000     0.00000000     0.00000000
     0.00000000     0.00000000     0.00000000
     0.00000000     0.00000000     0.00000000
     0.00000000     0.00000000     0.00000000
     0.00000000     0.00000000     0.00000000
     0.00000000     0.00000000     0.00000000
     0.00000000     0.00000000     0.00000000
     0.00000000     0.00000000     0.00000000
     0.00000000     0.00000000     0.00000000
     0.00000000     0.00000000     0.00000000
     0.00000000     0.00000000     0.00000000
     0.00000000     0.00000000     0.00000000
     0.00000000     0.00000000     0.00000000
     0.00000000     0.00000000     0.00000000
     0.00000000     0.00000000     0.00000000
     0.00000000     0.00000000     0.00000000
     0.00000000     0.00000000     0.00000000
     0.00000000     0.00000000     0.00000000
     0.00000000     0.00000000     0.00000000
     0.00000000     0.00000000     0.00000000
     0.00000000     0.00000000     0.00000000
     0.00000000     0.00000000     0.00000000
     0.00000000     0.00000000     0.00000000
     0.00000000     0.00000000     0.00000000
     0.00000000     0.00000000     0.00000000
     0.00000000     0.00000000     0.00000000
     0.00000000     0.00000000     0.00000000
     0.00000000     0.00000000     0.00000000
     0.00000000     0.00000000     0.00000000
     0.00000000     0.00000000     0.00000000
     0.00000000     0.00000000     0.00000000
     0.00000000     0.00000000     0.00000000
     0.00000000     0.00000000     0.00000000
     0.00000000     0.00000000     0.00000000
     0.00000000     0.00000000     0.00000000
     0.00000000     0.00000000     0.00000000
     0.00000000     0.00000000     0.00000000
     0.00000000     0.00000000     0.00000000
     0.00000000     0.00000000     0.00000000
     0.00000000     0.00000000     0.00000000
     0.00000000     0.00000000     0.00000000
     0.00000000     0.00000000     0.00000000
     0.00000000     0.00000000     0.00000000
     0.00000000     0.00000000     0.00000000
     0.00000000     0.00000000     0.00000000
     0.00000000     0.00000000     0.00000000
     0.00000000     0.00000000     0.00000000
     0.00000000     0.00000000     0.00000000
     0.00000000     0.00000000     0.00000000
     0.00000000     0.00000000     0.00000000
     0.00000000     0.00000000     0.00000000
     0.00000000     0.00000000     0.00000000
     0.00000000     0.00000000     0.00000000
     0.00000000     0.00000000     0.00000000
     0.00000000     0.00000000     0.00000000
     0.00000000     0.00000000     0.00000000
     0.00000000     0.00000000     0.00000000
     0.00000000     0.00000000     0.00000000
     0.00000000     0.00000000     0.00000000
     0.00000000     0.00000000     0.00000000
     0.00000000     0.00000000     0.00000000
     0.00000000     0.00000000     0.00000000
     0.00000000     0.00000000     0.00000000
     0.00000000     0.00000000     0.00000000
     0.00000000     0.00000000     0.00000000
     0.00000000     0.00000000     0.00000000
     0.00000000     0.00000000     0.00000000
     0.00000000     0.00000000     0.00000000
     0.00000000     0.00000000     0.00000000
     0.00000000     0.00000000     0.00000000
     0.00000000     0.00000000     0.00000000
     0.00000000     0.00000000     0.00000000
     0.00000000     0.00000000     0.00000000
     0.00000000     0.00000000     0.00000000
     0.00000000     0.00000000     0.00000000
     0.00000000     0.00000000     0.00000000
SCALARS Temperatures float
LOOKUP_TABLE default
     0.00000000
     0.00000000
     0.00000000
     0.00000000
     0.00000000
     0.00000000
     0.00000000
     0.00000000
     0.00000000
     0.00000000
     0.00000000
     0.00000000
     0.00000000
     0.00000000
     0.00000000
     0.00000000
     0.00000000
     0.00000000
     0.00000000
     0.00000000
     0.00000000
     0.00000000
     0.00000000
     0.00000000
     0.00000000
     0.00000000
     0.00000000
     0.00000000
     0.00000000
     0.00000000
     0.00000000
     0.00000000
     0.00000000
     0.00000000
     0.00000000
     0.00000000
     0.00000000
     0.00000000
     0.00000000
     0.00000000
     0.00000000
     0.00000000
     0.00000000
     0.00000000
     0.00000000
     0.00000000
     0.00000000
     0.00000000
     0.00000000
     0.00000000
     0.00000000
     0.00000000
     0.00000000
     0.00000000
     0.00000000
     0.00000000
     0.00000000
     0.00000000
     0.00000000
     0.00000000
     0.00000000
     0.00000000
     0.00000000
     0.00000000
     0.00000000
     0.00000000
     0.00000000
     0.00000000
     0.00000000
     0.00000000
     0.00000000
     0.00000000
     0.00000000
     0.00000000
     0.00000000
     0.00000000
     0.00000000
     0.00000000
     0.00000000
     0.00000000
     0.00000000
     0.00000000
     0.00000000
     0.00000000
     0.00000000
     0.00000000
     0.00000000
     0.00000000
     0.00000000
     0.00000000
     0.00000000
     0.00000000
     0.00000000
     0.00000000
     0.00000000
     0.00000000
     0.00000000
     0.00000000
     0.00000000
     0.00000000
     0.00000000
     0.00000000
     0.00000000
     0.00000000
     0.00000000
     0.00000000
     0.00000000
     0.00000000
     0.00000000
     0.00000000
     0.00000000
     0.00000000
     0.00000000
     0.00000000
     0.00000000
     0.00000000
     0.00000000
     0.00000000
     0.00000000
     0.00000000
     0.00000000
     0.00000000
     0.00000000
     0.00000000
     0.00000000
     0.00000000
     0.00000000
     0.00000000
     0.00000000
     0.00000000
     0.00000000
     0.00000000
     0.00000000
     0.00000000
     0.00000000
     0.00000000
     0.00000000
     0.00000000
     0.00000000
     0.00000000
     0.00000000
     0.00000000
     0.00000000
     0.00000000
     0.00000000
     0.00000000
     0.00000000
     0.00000000
     0.00000000
     0.00000000
     0.00000000
     0.00000000
     0.00000000
     0.00000000
     0.00000000
     0.00000000
     0.00000000
     0.00000000
     0.00000000
     0.00000000
     0.00000000
     0.00000000
     0.00000000
     0.00000000
     0.00000000
     0.00000000
     0.00000000
     0.00000000
     0.00000000
     0.00000000
     0.00000000
     0.00000000
     0.00000000
     0.00000000
     0.00000000
     0.00000000
     0.00000000
     0.00000000
     0.00000000
     0.00000000
     0.00000000
     0.00000000
     0.00000000
     0.00000000
     0.00000000
     0.00000000
     0.00000000
     0.00000000
     0.00000000
     0.00000000
     0.00000000
     0.00000000
     0.00000000
     0.00000000
     0.00000000
     0.00000000
     0.00000000
     0.00000000
     0.00000000
     0.00000000
     0.00000000
     0.00000000
     0.00000000
     0.00000000
     0.00000000
     0.00000000
     0.00000000
     0.00000000
     0.00000000
     0.00000000
     0.00000000
     0.00000000
     0.00000000
     0.00000000
     0.00000000
     0.00000000
     0.00000000
     0.00000000
     0.00000000
     0.00000000
     0.00000000
     0.00000000
     0.00000000
     0.00000000
     0.00000000
     0.00000000
     0.00000000
     0.00000000
     0.00000000
     0.00000000
     0.00000000
     0.00000000
     0.00000000
     0.00000000
     0.00000000
     0.00000000
     0.00000000
     0.00000000
     0.00000000
     0.00000000
     0.00000000
     0.00000000
     0.00000000
     0.00000000
     0.00000000
     0.00000000
     0.00000000
     0.00000000
     0.00000000
     0.00000000
     0.00000000
     0.00000000
     0.00000000
     0.00000000
     0.00000000
     0.00000000
     0.00000000
     0.00000000
     0.00000000
     0.00000000
     0.00000000
     0.00000000
     0.00000000
     0.00000000
     0.00000000
     0.00000000
     0.00000000
     0.00000000
     0.00000000
     0.00000000
     0.00000000
     0.00000000
     0.00000000
     0.00000000
     0.00000000
     0.00000000
     0.00000000
     0.00000000
     0.00000000
     0.00000000
     0.00000000
     0.00000000
     0.00000000
     0.00000000
     0.00000000
     0.00000000
     0.00000000
     0.00000000
     0.00000000
     0.00000000
     0.00000000
     0.00000000
     0.00000000
     0.00000000
     0.00000000
     0.00000000
     0.00000000
     0.00000000
     0.00000000
     0.00000000
     0.00000000
     0.00000000
     0.00000000
     0.00000000
     0.00000000
     0.00000000
     0.00000000
     0.00000000
     0.00000000
     0.00000000
     0.00000000
     0.00000000
     0.00000000
     0.00000000
     0.00000000
     0.00000000
     0.00000000
     0.00000000
     0.00000000
     0.00000000
     0.00000000
     0.00000000
     0.00000000
     0.00000000
     0.00000000
     0.00000000
     0.00000000
     0.00000000
     0.00000000
     0.00000000
     0.00000000
     0.00000000
     0.00000000
     0.00000000
     0.00000000
     0.00000000
     0.00000000
     0.00000000
     0.00000000
     0.00000000
     0.00000000
     0.00000000
     0.00000000
     0.00000000
     0.00000000
     0.00000000
     0.00000000
     0.00000000
     0.00000000
     0.00000000
     0.00000000
     0.00000000
     0.00000000
     0.00000000
     0.00000000
     0.00000000
     0.00000000
     0.00000000
     0.00000000
     0.00000000
     0.00000000
     0.00000000
     0.00000000
     0.00000000
     0.00000000
     0.00000000
     0.00000000
     0.00000000
     0.00000000
     0.00000000
     0.00000000
     0.00000000
     0.00000000
     0.00000000
     0.00000000
     0.00000000
     0.00000000
     0.00000000
     0.00000000
     0.00000000
     0.00000000
     0.00000000
     0.00000000
     0.00000000
     0.00000000
     0.00000000
     0.00000000
     0.00000000
     0.00000000
     0.00000000
     0.00000000
     0.00000000
     0.00000000
     0.00000000
     0.00000000
     0.00000000
     0.00000000
     0.00000000
     0.00000000
     0.00000000
     0.00000000
     0.00000000
     0.00000000
     0.00000000
     0.00000000
     0.00000000
     0.00000000
     0.00000000
     0.00000000
     0.00000000
     0.00000000
     0.00000000
     0.00000000
     0.00000000
     0.00000000
     0.00000000
     0.00000000
     0.00000000
     0.00000000
     0.00000000
     0.00000000
     0.00000000
     0.00000000
     0.00000000
     0.00000000
     0.00000000
     0.00000000
     0.00000000
     0.00000000
     0.00000000
     0.00000000
     0.00000000
     0.00000000
     0.00000000
     0.00000000
     0.00000000
     0.00000000
     0.00000000
     0.00000000
     0.00000000
     0.00000000
     0.00000000
     0.00000000
     0.00000000
     0.00000000
     0.00000000
     0.00000000
     0.00000000
     0.00000000
     0.00000000
     0.00000000
     0.00000000
     0.00000000
     0.00000000
     0.00000000
     0.00000000
     0.00000000
     0.00000000
     0.00000000
     0.00000000
     0.00000000
     0.00000000
     0.00000000
     0.00000000
     0.00000000
     0.00000000
     0.00000000
     0.00000000
     0.00000000
     0.00000000
     0.00000000
     0.00000000
     0.00000000
     0.00000000
     0.00000000
     0.00000000
     0.00000000
     0.00000000
     0.00000000
     0.00000000
     0.00000000
     0.00000000
     0.00000000
     0.00000000
     0.00000000
     0.00000000
     0.00000000
     0.00000000
     0.00000000
     0.00000000
     0.00000000
     0.00000000
     0.00000000
     0.00000000
     0.00000000
     0.00000000
     0.00000000
     0.00000000
     0.00000000
     0.00000000
     0.00000000
     0.00000000
     0.00000000
     0.00000000
     0.00000000
     0.00000000
     0.00000000
     0.00000000
     0.00000000
     0.00000000
     0.00000000
     0.00000000
     0.00000000
     0.00000000
     0.00000000
     0.00000000
     0.00000000
     0.00000000
     0.00000000
     0.00000000
     0.00000000
     0.00000000
     0.00000000
     0.00000000
     0.00000000
     0.00000000
     0.00000000
     0.00000000
     0.00000000
     0.00000000
     0.00000000
     0.00000000
     0.00000000
     0.00000000
     0.00000000
     0.00000000
     0.00000000
     0.00000000
     0.00000000
     0.00000000
     0.00000000
     0.00000000
     0.00000000
     0.00000000
     0.00000000
     0.00000000
     0.00000000
     0.00000000
     0.00000000
     0.00000000
     0.00000000
     0.00000000
     0.00000000
     0.00000000
     0.00000000
     0.00000000
     0.00000000
     0.00000000
     0.00000000
     0.00000000
     0.00000000
     0.00000000
     0.00000000
     0.00000000
     0.00000000
     0.00000000
     0.00000000
     0.00000000
     0.00000000
     0.00000000
     0.00000000
     0.00000000
     0.00000000
     0.00000000
     0.00000000
     0.00000000
     0.00000000
     0.00000000
     0.00000000
     0.00000000
     0.00000000
     0.00000000
     0.00000000
     0.00000000
     0.00000000
     0.00000000
     0.00000000
     0.00000000
     0.00000000
     0.00000000
     0.00000000
     0.00000000
     0.00000000
     0.00000000
     0.00000000
     0.00000000
     0.00000000
     0.00000000
     0.00000000
     0.00000000
     0.00000000
     0.00000000
     0.00000000
     0.00000000
     0.00000000
     0.00000000
     0.00000000
     0.00000000
     0.00000000
     0.00000000
     0.00000000
     0.00000000
     0.00000000
     0.00000000
     0.00000000
     0.00000000
     0.00000000
     0.00000000
     0.00000000
     0.00000000
     0.00000000
     0.00000000
     0.00000000
     0.00000000
     0.00000000
     0.00000000
     0.00000000
     0.00000000
     0.00000000
     0.00000000
     0.00000000
     0.00000000
     0.00000000
     0.00000000
     0.00000000
     0.00000000
     0.00000000
     0.00000000
     0.00000000
     0.00000000
     0.00000000
     0.00000000
     0.00000000
     0.00000000
     0.00000000
     0.00000000
     0.00000000
     0.00000000
     0.00000000
     0.00000000
     0.00000000
     0.00000000
     0.00000000
     0.00000000
     0.00000000
     0.00000000
     0.00000000
     0.00000000
     0.00000000
     0.00000000
     0.00000000
     0.00000000
     0.00000000
     0.00000000
     0.00000000
     0.00000000
     0.00000000
     0.00000000
     0.00000000
     0.00000000
     0.00000000
     0.00000000
     0.00000000
     0.00000000
     0.00000000
     0.00000000
     0.00000000
     0.00000000
     0.00000000
     0.00000000
     0.00000000
     0.00000000
     0.00000000
     0.00000000
     0.00000000
     0.00000000
     0.00000000
     0.00000000
     0.00000000
     0.00000000
     0.00000000
     0.00000000
     0.00000000
     0.00000000
     0.00000000
     0.00000000
     0.00000000
     0.00000000
     0.00000000
     0.00000000
     0.00000000
     0.00000000
     0.00000000
     0.00000000
     0.00000000
     0.00000000
     0.00000000
     0.00000000
     0.00000000
     0.00000000
     0.00000000
     0.00000000
     0.00000000
     0.00000000
     0.00000000
     0.00000000
     0.00000000
     0.00000000
     0.00000000
     0.00000000
     0.00000000
     0.00000000
     0.00000000
     0.00000000
     0.00000000
     0.00000000
     0.00000000
     0.00000000
     0.00000000
     0.00000000
     0.00000000
     0.00000000
     0.00000000
     0.00000000
     0.00000000
     0.00000000
     0.00000000
     0.00000000
     0.00000000
     0.00000000
     0.00000000
     0.00000000
     0.00000000
     0.00000000
     0.00000000
     0.00000000
     0.00000000
     0.00000000
     0.00000000
     0.00000000
     0.00000000
     0.00000000
     0.00000000
     0.00000000
     0.00000000
     0.00000000
     0.00000000
     0.00000000
     0.00000000
     0.00000000
     0.00000000
     0.00000000
     0.00000000
     0.00000000
     0.00000000
     0.00000000
     0.00000000
     0.00000000
     0.00000000
     0.00000000
     0.00000000
     0.00000000
     0.00000000
     0.00000000
     0.00000000
     0.00000000
     0.00000000
     0.00000000
     0.00000000
     0.00000000
     0.00000000
     0.00000000
     0.00000000
     0.00000000
     0.00000000
     0.00000000
     0.00000000
     0.00000000
     0.00000000
     0.00000000
     0.00000000
     0.00000000
     0.00000000
     0.00000000
     0.00000000
     0.00000000
     0.00000000
     0.00000000
     0.00000000
     0.00000000
     0.00000000
     0.00000000
     0.00000000
     0.00000000
     0.00000000
     0.00000000
     0.00000000
     0.00000000
     0.00000000
     0.00000000
     0.00000000
     0.00000000
     0.00000000
     0.00000000
     0.00000000
     0.00000000
     0.00000000
     0.00000000
     0.00000000
     0.00000000
     0.00000000
     0.00000000
     0.00000000
     0.00000000
     0.00000000
     0.00000000
     0.00000000
     0.00000000
     0.00000000
     0.00000000
     0.00000000
     0.00000000
     0.00000000
     0.00000000
     0.00000000
     0.00000000
     0.00000000
     0.00000000
     0.00000000
     0.00000000
     0.00000000
     0.00000000
     0.00000000
     0.00000000
     0.00000000
     0.00000000
     0.00000000
     0.00000000
     0.00000000
     0.00000000
     0.00000000
     0.00000000
     0.00000000
     0.00000000
     0.00000000
     0.00000000
     0.00000000
     0.00000000
     0.00000000
     0.00000000
     0.00000000
     0.00000000
     0.00000000
     0.00000000
     0.00000000
     0.00000000
     0.00000000
     0.00000000
     0.00000000
     0.00000000
     0.00000000
     0.00000000
     0.00000000
     0.00000000
     0.00000000
     0.00000000
     0.00000000
     0.00000000
     0.00000000
     0.00000000
     0.00000000
     0.00000000
     0.00000000
     0.00000000
     0.00000000
     0.00000000
     0.00000000
     0.00000000
     0.00000000
     0.00000000
     0.00000000
     0.00000000
     0.00000000
     0.00000000
     0.00000000
     0.00000000
     0.00000000
     0.00000000
     0.00000000
     0.00000000
     0.00000000
     0.00000000
     0.00000000
     0.00000000
     0.00000000
     0.00000000
     0.00000000
     0.00000000
     0.00000000
     0.00000000
     0.00000000
     0.00000000
     0.00000000
     0.00000000
     0.00000000
     0.00000000
     0.00000000
     0.00000000
     0.00000000
     0.00000000
     0.00000000
     0.00000000
     0.00000000
     0.00000000
     0.00000000
     0.00000000
     0.00000000
     0.00000000
     0.00000000
     0.00000000
     0.00000000
     0.00000000
     0.00000000
     0.00000000
     0.00000000
     0.00000000
     0.00000000
     0.00000000
     0.00000000
     0.00000000
     0.00000000
     0.00000000
     0.00000000
     0.00000000
     0.00000000
     0.00000000
     0.00000000
     0.00000000
     0.00000000
     0.00000000
     0.00000000
     0.00000000
     0.00000000
     0.00000000
     0.00000000
     0.00000000
     0.00000000
     0.00000000
     0.00000000
     0.00000000
     0.00000000
     0.00000000
     0.00000000
     0.00000000
     0.00000000
     0.00000000
     0.00000000
     0.00000000
     0.00000000
     0.00000000
     0.00000000
     0.00000000
     0.00000000
     0.00000000
     0.00000000
     0.00000000
     0.00000000
     0.00000000
     0.00000000
     0.00000000
     0.00000000
     0.00000000
     0.00000000
     0.00000000
     0.00000000
     0.00000000
     0.00000000
     0.00000000
     0.00000000
     0.00000000
     0.00000000
     0.00000000
     0.00000000
     0.00000000
     0.00000000
     0.00000000
     0.00000000
     0.00000000
     0.00000000
     0.00000000
     0.00000000
     0.00000000
     0.00000000
     0.00000000
     0.00000000
     0.00000000
     0.00000000
     0.00000000
     0.00000000
     0.00000000
     0.00000000
     0.00000000
     0.00000000
     0.00000000
     0.00000000
     0.00000000
     0.00000000
     0.00000000
     0.00000000
     0.00000000
     0.00000000
     0.00000000
     0.00000000
     0.00000000
     0.00000000
     0.00000000
     0.00000000
     0.00000000
     0.00000000
     0.00000000
     0.00000000
     0.00000000
     0.00000000
     0.00000000
     0.00000000
     0.00000000
     0.00000000
     0.00000000
     0.00000000
     0.00000000
     0.00000000
     0.00000000
     0.00000000
     0.00000000
     0.00000000
     0.00000000
     0.00000000
     0.00000000
     0.00000000
     0.00000000
     0.00000000
     0.00000000
     0.00000000
     0.00000000
     0.00000000
     0.00000000
     0.00000000
     0.00000000
     0.00000000
     0.00000000
     0.00000000
     0.00000000
     0.00000000
     0.00000000
     0.00000000
     0.00000000
     0.00000000
     0.00000000
     0.00000000
     0.00000000
     0.00000000
     0.00000000
     0.00000000
     0.00000000
     0.00000000
     0.00000000
     0.00000000
     0.00000000
     0.00000000
     0.00000000
     0.00000000
     0.00000000
     0.00000000
     0.00000000
     0.00000000
     0.00000000
     0.00000000
     0.00000000
     0.00000000
     0.00000000
     0.00000000
     0.00000000
     0.00000000
     0.00000000
     0.00000000
     0.00000000
     0.00000000
     0.00000000
     0.00000000
     0.00000000
     0.00000000
     0.00000000
     0.00000000
     0.00000000
     0.00000000
     0.00000000
     0.00000000
     0.00000000
     0.00000000
     0.00000000
     0.00000000
     0.00000000
     0.00000000
     0.00000000
     0.00000000
     0.00000000
     0.00000000
     0.00000000
     0.00000000
     0.00000000
     0.00000000
     0.00000000
     0.00000000
     0.00000000
     0.00000000
     0.00000000
     0.00000000
     0.00000000
     0.00000000
     0.00000000
     0.00000000
     0.00000000
     0.00000000
     0.00000000
     0.00000000
     0.00000000
     0.00000000
     0.00000000
     0.00000000
     0.00000000
     0.00000000
     0.00000000
     0.00000000
     0.00000000
     0.00000000
     0.00000000
     0.00000000
     0.00000000
     0.00000000
     0.00000000
     0.00000000
     0.00000000
     0.00000000
     0.00000000
     0.00000000
     0.00000000
     0.00000000
     0.00000000
     0.00000000
     0.00000000
     0.00000000
     0.00000000
     0.00000000
     0.00000000
     0.00000000
     0.00000000
     0.00000000
     0.00000000
     0.00000000
     0.00000000
     0.00000000
     0.00000000
     0.00000000
     0.00000000
     0.00000000
     0.00000000
     0.00000000
     0.00000000
     0.00000000
     0.00000000
     0.00000000
     0.00000000
     0.00000000
     0.00000000
     0.00000000
     0.00000000
     0.00000000
     0.00000000
     0.00000000
     0.00000000
     0.00000000
     0.00000000
     0.00000000
     0.00000000
     0.00000000
     0.00000000
     0.00000000
     0.00000000
     0.00000000
     0.00000000
     0.00000000
     0.00000000
     0.00000000
     0.00000000
     0.00000000
     0.00000000
     0.00000000
     0.00000000
     0.00000000
     0.00000000
     0.00000000
     0.00000000
     0.00000000
     0.00000000
     0.00000000
     0.00000000
     0.00000000
     0.00000000
     0.00000000
     0.00000000
     0.00000000
     0.00000000
     0.00000000
     0.00000000
     0.00000000
     0.00000000
     0.00000000
     0.00000000
     0.00000000
     0.00000000
     0.00000000
     0.00000000
     0.00000000
     0.00000000
     0.00000000
     0.00000000
     0.00000000
     0.00000000
     0.00000000
     0.00000000
     0.00000000
     0.00000000
     0.00000000
     0.00000000
     0.00000000
     0.00000000
     0.00000000
     0.00000000
     0.00000000
     0.00000000
     0.00000000
     0.00000000
     0.00000000
     0.00000000
     0.00000000
     0.00000000
     0.00000000
     0.00000000
     0.00000000
     0.00000000
     0.00000000
     0.00000000
     0.00000000
     0.00000000
     0.00000000
     0.00000000
     0.00000000
     0.00000000
     0.00000000
     0.00000000
     0.00000000
     0.00000000
     0.00000000
     0.00000000
     0.00000000
     0.00000000
     0.00000000
     0.00000000
     0.00000000
     0.00000000
     0.00000000
     0.00000000
     0.00000000
     0.00000000
     0.00000000
     0.00000000
     0.00000000
     0.00000000
     0.00000000
     0.00000000
     0.00000000
     0.00000000
     0.00000000
     0.00000000
     0.00000000
     0.00000000
     0.00000000
     0.00000000
     0.00000000
     0.00000000
     0.00000000
     0.00000000
     0.00000000
     0.00000000
     0.00000000
     0.00000000
     0.00000000
     0.00000000
     0.00000000
     0.00000000
     0.00000000
     0.00000000
     0.00000000
     0.00000000
     0.00000000
     0.00000000
     0.00000000
     0.00000000
     0.00000000
     0.00000000
     0.00000000
     0.00000000
     0.00000000
     0.00000000
     0.00000000
     0.00000000
     0.00000000
     0.00000000
     0.00000000
     0.00000000
     0.00000000
     0.00000000
     0.00000000
     0.00000000
     0.00000000
     0.00000000
     0.00000000
     0.00000000
     0.00000000
     0.00000000
     0.00000000
     0.00000000
     0.00000000
     0.00000000
     0.00000000
     0.00000000
     0.00000000
     0.00000000
     0.00000000
     0.00000000
     0.00000000
     0.00000000
     0.00000000
     0.00000000
     0.00000000
     0.00000000
     0.00000000
     0.00000000
     0.00000000
     0.00000000
     0.00000000
     0.00000000
     0.00000000
     0.00000000
     0.00000000
     0.00000000
     0.00000000
     0.00000000
     0.00000000
     0.00000000
     0.00000000
     0.00000000
     0.00000000
     0.00000000
     0.00000000
     0.00000000
     0.00000000
     0.00000000
     0.00000000
     0.00000000
     0.00000000
     0.00000000
     0.00000000
     0.00000000
     0.00000000
     0.00000000
     0.00000000
     0.00000000
     0.00000000
     0.00000000
     0.00000000
     0.00000000
     0.00000000
     0.00000000
     0.00000000
     0.00000000
     0.00000000
     0.00000000
     0.00000000
     0.00000000
     0.00000000
     0.00000000
     0.00000000
     0.00000000
     0.00000000
     0.00000000
     0.00000000
     0.00000000
     0.00000000
     0.00000000
     0.00000000
     0.00000000
     0.00000000
     0.00000000
     0.00000000
     0.00000000
     0.00000000
     0.00000000
     0.00000000
     0.00000000
     0.00000000
     0.00000000
     0.00000000
     0.00000000
     0.00000000
     0.00000000
     0.00000000
     0.00000000
     0.00000000
     0.00000000
     0.00000000
     0.00000000
     0.00000000
     0.00000000
     0.00000000
     0.00000000
     0.00000000
     0.00000000
     0.00000000
     0.00000000
     0.00000000
     0.00000000
     0.00000000
     0.00000000
     0.00000000
     0.00000000
     0.00000000
     0.00000000
     0.00000000
     0.00000000
     0.00000000
     0.00000000
     0.00000000
     0.00000000
     0.00000000
     0.00000000
     0.00000000
     0.00000000
     0.00000000
     0.00000000
     0.00000000
     0.00000000
     0.00000000
     0.00000000
     0.00000000
     0.00000000
     0.00000000
     0.00000000
     0.00000000
     0.00000000
     0.00000000
     0.00000000
     0.00000000
     0.00000000
     0.00000000
     0.00000000
     0.00000000
     0.00000000
     0.00000000
     0.00000000
     0.00000000
     0.00000000
     0.00000000
     0.00000000
     0.00000000
     0.00000000
     0.00000000
     0.00000000
     0.00000000
     0.00000000
     0.00000000
     0.00000000
     0.00000000
     0.00000000
     0.00000000
     0.00000000
     0.00000000
     0.00000000
     0.00000000
     0.00000000
     0.00000000
     0.00000000
     0.00000000
     0.00000000
     0.00000000
     0.00000000
     0.00000000
     0.00000000
     0.00000000
     0.00000000
     0.00000000
     0.00000000
     0.00000000
     0.00000000
     0.00000000
     0.00000000
     0.00000000
     0.00000000
     0.00000000
     0.00000000
     0.00000000
     0.00000000
     0.00000000
     0.00000000
     0.00000000
     0.00000000
     0.00000000
     0.00000000
     0.00000000
     0.00000000
     0.00000000
     0.00000000
     0.00000000
     0.00000000
     0.00000000
     0.00000000
     0.00000000
     0.00000000
     0.00000000
     0.00000000
     0.00000000
     0.00000000
     0.00000000
     0.00000000
     0.00000000
     0.00000000
     0.00000000
     0.00000000
     0.00000000
     0.00000000
     0.00000000
     0.00000000
     0.00000000
     0.00000000
     0.00000000
     0.00000000
     0.00000000
     0.00000000
     0.00000000
     0.00000000
     0.00000000
     0.00000000
     0.00000000
     0.00000000
     0.00000000
     0.00000000
     0.00000000
     0.00000000
     0.00000000
     0.00000000
     0.00000000
     0.00000000
     0.00000000
     0.00000000
     0.00000000
     0.00000000
     0.00000000
     0.00000000
     0.00000000
     0.00000000
     0.00000000
     0.00000000
     0.00000000
     0.00000000
     0.00000000
     0.00000000
     0.00000000
     0.00000000
     0.00000000
VECTORS ShearStress float 
     0.00043823    -0.00033188    -0.00008553
     0.00501545    -0.00281686    -0.00046442
     0.00866832    -0.00325112    -0.00004675
     0.00399326    -0.00089744     0.00022085
     0.00401230    -0.00048281    -0.00028551
    -0.00171455    -0.00004588     0.00103086
    -0.01935624    -0.00374345     0.00129649
    -0.04276400    -0.01483910    -0.00024505
    -0.13895700    -0.05320042    -0.00294193
    -0.00000000    -0.00046653    -0.00025574
     0.00000000     0.00000000     0.00000000
     0.00000000     0.00000000     0.00000000
     0.00000000     0.00000000     0.00000000
     0.00000000     0.00000000     0.00000000
     0.00000000     0.00000000     0.00000000
     0.00000000     0.00000000     0.00000000
     0.00000000     0.00000000     0.00000000
     0.00000000     0.00000000     0.00000000
     0.00000000    -0.00276433     0.00026984
     0.00000000     0.00000000     0.00000000
     0.00000000     0.00000000     0.00000000
     0.00000000     0.00000000     0.00000000
     0.00000000     0.00000000     0.00000000
     0.00000000     0.00000000     0.00000000
     0.00000000     0.00000000     0.00000000
     0.00000000     0.00000000     0.00000000
     0.00000000     0.00000000     0.00000000
     0.00000000    -0.00144859     0.00035917
     0.00000000     0.00000000     0.00000000
     0.00000000     0.00000000     0.00000000
     0.00000000     0.00000000     0.00000000
     0.00000000     0.00000000     0.00000000
     0.00000000     0.00000000     0.00000000
     0.00000000     0.00000000     0.00000000
     0.00000000     0.00000000     0.00000000
     0.00000000     0.00000000     0.00000000
     0.00000000    -0.00261712     0.00061346
     0.00000000     0.00000000     0.00000000
     0.00000000     0.00000000     0.00000000
     0.00000000     0.00000000     0.00000000
     0.00000000     0.00000000     0.00000000
     0.00000000     0.00000000     0.00000000
     0.00000000     0.00000000     0.00000000
     0.00000000     0.00000000     0.00000000
     0.00000000     0.00000000     0.00000000
     0.00000000    -0.00050122     0.00051080
     0.00000000     0.00000000     0.00000000
     0.00000000     0.00000000     0.00000000
     0.00000000     0.00000000     0.00000000
     0.00000000     0.00000000     0.00000000
     0.00000000     0.00000000     0.00000000
     0.00000000     0.00000000     0.00000000
     0.00000000     0.00000000     0.00000000
     0.13950989    -0.04734287    -0.00871774
     0.00000000     0.00215920     0.00056806
     0.00000000     0.00000000     0.00000000
     0.00000000     0.00000000     0.00000000
     0.00000000     0.00000000     0.00000000
     0.00000000     0.00000000     0.00000000
     0.00000000     0.00000000     0.00000000
     0.00000000     0.00000000     0.00000000
     0.00000000     0.00000000     0.00000000
     0.00000000     0.00000000     0.00000000
     0.00000000     0.00104073     0.00032264
     0.00000000     0.00000000     0.00000000
     0.00000000     0.00000000     0.00000000
     0.00000000     0.00000000     0.00000000
     0.00000000     0.00000000     0.00000000
     0.00000000     0.00000000     0.00000000
     0.00000000     0.00000000     0.00000000
     0.00000000     0.00000000     0.00000000
     0.00000000     0.00000000     0.00000000
     0.00000000     0.00136434     0.00021757
     0.00000000     0.00000000     0.00000000
     0.00000000     0.00000000     0.00000000
     0.00000000     0.00000000     0.00000000
     0.00000000     0.00000000     0.00000000
     0.00000000     0.00000000     0.00000000
     0.00000000     0.00000000     0.00000000
     0.00000000     0.00000000     0.00000000
     0.00000000     0.00000000     0.00000000
    -0.00000000     0.00255668    -0.00024066
     0.00000000     0.00000000     0.00000000
     0.00000000     0.00000000     0.00000000
     0.00000000     0.00000000     0.00000000
     0.00000000     0.00000000     0.00000000
     0.00000000     0.00000000     0.00000000
     0.00000000     0.00000000     0.00000000
     0.00000000     0.00000000     0.00000000
     0.00000000     0.00000000     0.00000000
     0.00109694     0.00103382    -0.00008965
     0.00986229     0.00578089    -0.00050319
     0.00642967     0.00243863     0.00027556
     0.00099248     0.00027419     0.00009350
    -0.00377569    -0.00035281     0.00052958
    -0.01482303     0.00005646     0.00093043
    -0.02773351     0.00647033     0.00016301
    -0.03973998     0.01781715     0.00005727
    -0.08179725     0.04088373    -0.00135707
    -0.00047840     0.00034048    -0.00040145
    -0.00363199     0.00186467    -0.00237192
     0.00222279    -0.00087561    -0.00028459
     0.00073920    -0.00009580     0.00034933
     0.00159789    -0.00030584    -0.00081519
     0.00247382     0.00057107     0.00360798
    -0.00488113    -0.00045181     0.00415468
    -0.02818017    -0.01107087    -0.00557089
    -0.14392051    -0.06088546    -0.02138652
    -0.00000000    -0.00001505    -0.00080770
     0.00000000     0.00000000     0.00000000
     0.00000000     0.00000000     0.00000000
     0.00000000     0.00000000     0.00000000
     0.00000000     0.00000000     0.00000000
     0.00000000     0.00000000     0.00000000
     0.00000000     0.00000000     0.00000000
     0.00000000     0.00000000     0.00000000
     0.00000000     0.00000000     0.00000000
     0.00000000    -0.00299282     0.00114071
     0.00000000     0.00000000     0.00000000
     0.00000000     0.00000000     0.00000000
     0.00000000     0.00000000     0.00000000
     0.00000000     0.00000000     0.00000000
     0.00000000     0.00000000     0.00000000
     0.00000000     0.00000000     0.00000000
     0.00000000     0.00000000     0.00000000
     0.00000000     0.00000000     0.00000000
     0.00000000    -0.00100110     0.00148742
     0.00000000     0.00000000     0.00000000
     0.00000000     0.00000000     0.00000000
     0.00000000     0.00000000     0.00000000
     0.00000000     0.00000000     0.00000000
     0.00000000     0.00000000     0.00000000
     0.00000000     0.00000000     0.00000000
     0.00000000     0.00000000     0.00000000
     0.00000000     0.00000000     0.00000000
     0.00000000    -0.00284126     0.00243010
     0.00000000     0.00000000     0.00000000
     0.00000000     0.00000000     0.00000000
     0.00000000     0.00000000     0.00000000
     0.00000000     0.00000000     0.00000000
     0.00000000     0.00000000     0.00000000
     0.00000000     0.00000000     0.00000000
     0.00000000     0.00000000     0.00000000
     0.00000000     0.00000000     0.00000000
     0.00000000    -0.00042565     0.00208034
     0.00000000     0.00000000     0.00000000
     0.00000000     0.00000000     0.00000000
     0.00000000     0.00000000     0.00000000
     0.00000000     0.00000000     0.00000000
     0.00000000     0.00000000     0.00000000
     0.00000000     0.00000000     0.00000000
     0.00000000     0.00000000     0.00000000
     0.12188397    -0.04251081    -0.04091142
     0.00000000     0.00262453     0.00228498
     0.00000000     0.00000000     0.00000000
     0.00000000     0.00000000     0.00000000
     0.00000000     0.00000000     0.00000000
     0.00000000     0.00000000     0.00000000
     0.00000000     0.00000000     0.00000000
     0.00000000     0.00000000     0.00000000
     0.00000000     0.00000000     0.00000000
     0.00000000     0.00000000     0.00000000
     0.00000000     0.00097243     0.00136822
     0.00000000     0.00000000     0.00000000
     0.00000000     0.00000000     0.00000000
     0.00000000     0.00000000     0.00000000
     0.00000000     0.00000000     0.00000000
     0.00000000     0.00000000     0.00000000
     0.00000000     0.00000000     0.00000000
     0.00000000     0.00000000     0.00000000
     0.00000000     0.00000000     0.00000000
     0.00000000     0.00122795     0.00093760
     0.00000000     0.00000000     0.00000000
     0.00000000     0.00000000     0.00000000
     0.00000000     0.00000000     0.00000000
     0.00000000     0.00000000     0.00000000
     0.00000000     0.00000000     0.00000000
     0.00000000     0.00000000     0.00000000
     0.00000000     0.00000000     0.00000000
     0.00000000     0.00000000     0.00000000
    -0.00000000     0.00154853    -0.00070382
     0.00000000     0.00000000     0.00000000
     0.00000000     0.00000000     0.00000000
     0.00000000     0.00000000     0.00000000
     0.00000000     0.00000000     0.00000000
     0.00000000     0.00000000     0.00000000
     0.00000000     0.00000000     0.00000000
     0.00000000     0.00000000     0.00000000
     0.00000000     0.00000000     0.00000000
     0.00005665     0.00022370    -0.00037121
     0.00015041     0.00046606    -0.00217859
    -0.00075955    -0.00034003     0.00050162
    -0.00343632    -0.00081596     0.00018536
    -0.00350192    -0.00071887     0.00231110
    -0.01136270    -0.00052338     0.00341119
    -0.02102277     0.00511455    -0.00052408
    -0.03589945     0.01672151    -0.00139882
    -0.08246535     0.04251517    -0.00234216
    -0.00011375     0.00028260     0.00041811
    -0.00037164     0.00120272     0.00254089
     0.00329520    -0.00139774    -0.00034938
     0.00274720    -0.00058796     0.00020254
     0.00150630    -0.00013200     0.00005062
     0.00690048     0.00044187     0.00124180
     0.01071423     0.00356832     0.00551063
    -0.01340441    -0.00577343     0.00037967
    -0.16984755    -0.08428188    -0.02156673
     0.00000000     0.00050952     0.00102298
     0.00000000     0.00000000     0.00000000
     0.00000000     0.00000000     0.00000000
     0.00000000     0.00000000     0.00000000
     0.00000000     0.00000000     0.00000000
     0.00000000     0.00000000     0.00000000
     0.00000000     0.00000000     0.00000000
     0.00000000     0.00000000     0.00000000
     0.00000000     0.00000000     0.00000000
     0.00000000    -0.00229348     0.00126750
     0.00000000     0.00000000     0.00000000
     0.00000000     0.00000000     0.00000000
     0.00000000     0.00000000     0.00000000
     0.00000000     0.00000000     0.00000000
     0.00000000     0.00000000     0.00000000
     0.00000000     0.00000000     0.00000000
     0.00000000     0.00000000     0.00000000
     0.00000000     0.00000000     0.00000000
     0.00000000    -0.00085188     0.00137750
     0.00000000     0.00000000     0.00000000
     0.00000000     0.00000000     0.00000000
     0.00000000     0.00000000     0.00000000
     0.00000000     0.00000000     0.00000000
     0.00000000     0.00000000     0.00000000
     0.00000000     0.00000000     0.00000000
     0.00000000     0.00000000     0.00000000
     0.00000000     0.00000000     0.00000000
     0.00000000    -0.00199225     0.00153551
     0.00000000     0.00000000     0.00000000
     0.00000000     0.00000000     0.00000000
     0.00000000     0.00000000     0.00000000
     0.00000000     0.00000000     0.00000000
     0.00000000     0.00000000     0.00000000
     0.00000000     0.00000000     0.00000000
     0.00000000     0.00000000     0.00000000
     0.00000000     0.00000000     0.00000000
     0.00000000    -0.00043898     0.00170248
     0.00000000     0.00000000     0.00000000
     0.00000000     0.00000000     0.00000000
     0.00000000     0.00000000     0.00000000
     0.00000000     0.00000000     0.00000000
     0.00000000     0.00000000     0.00000000
     0.00000000     0.00000000     0.00000000
     0.00000000     0.00000000     0.00000000
     0.10364695    -0.03913072    -0.07099162
     0.00000000     0.00176202     0.00166015
     0.00000000     0.00000000     0.00000000
     0.00000000     0.00000000     0.00000000
     0.00000000     0.00000000     0.00000000
     0.00000000     0.00000000     0.00000000
     0.00000000     0.00000000     0.00000000
     0.00000000     0.00000000     0.00000000
     0.00000000     0.00000000     0.00000000
     0.00000000     0.00000000     0.00000000
     0.00000000     0.00073247     0.00146690
     0.00000000     0.00000000     0.00000000
     0.00000000     0.00000000     0.00000000
     0.00000000     0.00000000     0.00000000
     0.00000000     0.00000000     0.00000000
     0.00000000     0.00000000     0.00000000
     0.00000000     0.00000000     0.00000000
     0.00000000     0.00000000     0.00000000
     0.00000000     0.00000000     0.00000000
     0.00000000     0.00093082     0.00114546
     0.00000000     0.00000000     0.00000000
     0.00000000     0.00000000     0.00000000
     0.00000000     0.00000000     0.00000000
     0.00000000     0.00000000     0.00000000
     0.00000000     0.00000000     0.00000000
     0.00000000     0.00000000     0.00000000
     0.00000000     0.00000000     0.00000000
     0.00000000     0.00000000     0.00000000
     0.00000000     0.00122859     0.00147983
     0.00000000     0.00000000     0.00000000
     0.00000000     0.00000000     0.00000000
     0.00000000     0.00000000     0.00000000
     0.00000000     0.00000000     0.00000000
     0.00000000     0.00000000     0.00000000
     0.00000000     0.00000000     0.00000000
     0.00000000     0.00000000     0.00000000
     0.00000000     0.00000000     0.00000000
     0.00058885     0.00040531     0.00057609
     0.00478708     0.00187522     0.00326887
     0.00064652     0.00021774     0.00025908
    -0.00163325    -0.00082948     0.00132331
    -0.00163820    -0.00093268     0.00238489
    -0.00624050    -0.00206281     0.00645193
    -0.02167453     0.00507278     0.00143400
    -0.04044844     0.01908784     0.00269903
    -0.09585874     0.05149673     0.00363993
    -0.00024951     0.00039913     0.00032823
    -0.00054762     0.00180191     0.00229800
     0.01039343    -0.00381947     0.00098451
     0.00452585    -0.00105324     0.00019068
     0.00509656    -0.00050382     0.00021116
     0.00907585     0.00058668     0.00099113
     0.01810484     0.00342626    -0.00064893
     0.01741344     0.01063505     0.00931743
    -0.18737148    -0.10644146    -0.00503853
     0.00000000     0.00027942     0.00082538
     0.00000000     0.00000000     0.00000000
     0.00000000     0.00000000     0.00000000
     0.00000000     0.00000000     0.00000000
     0.00000000     0.00000000     0.00000000
     0.00000000     0.00000000     0.00000000
     0.00000000     0.00000000     0.00000000
     0.00000000     0.00000000     0.00000000
     0.00000000     0.00000000     0.00000000
     0.00000000    -0.00234810     0.00138373
     0.00000000     0.00000000     0.00000000
     0.00000000     0.00000000     0.00000000
     0.00000000     0.00000000     0.00000000
     0.00000000     0.00000000     0.00000000
     0.00000000     0.00000000     0.00000000
     0.00000000     0.00000000     0.00000000
     0.00000000     0.00000000     0.00000000
     0.00000000     0.00000000     0.00000000
     0.00000000    -0.00053617     0.00098487
     0.00000000     0.00000000     0.00000000
     0.00000000     0.00000000     0.00000000
     0.00000000     0.00000000     0.00000000
     0.00000000     0.00000000     0.00000000
     0.00000000     0.00000000     0.00000000
     0.00000000     0.00000000     0.00000000
     0.00000000     0.00000000     0.00000000
     0.00000000     0.00000000     0.00000000
     0.00000000    -0.00148409     0.00163069
     0.00000000     0.00000000     0.00000000
     0.00000000     0.00000000     0.00000000
     0.00000000     0.00000000     0.00000000
     0.00000000     0.00000000     0.00000000
     0.00000000     0.00000000     0.00000000
     0.00000000     0.00000000     0.00000000
     0.00000000     0.00000000     0.00000000
     0.00000000     0.00000000     0.00000000
     0.00000000    -0.00036446     0.00158501
     0.00000000     0.00000000     0.00000000
     0.00000000     0.00000000     0.00000000
     0.00000000     0.00000000     0.00000000
     0.00000000     0.00000000     0.00000000
     0.00000000     0.00000000     0.00000000
     0.00000000     0.00000000     0.00000000
     0.00000000     0.00000000     0.00000000
     0.07843160    -0.03358599    -0.04051456
     0.00000000     0.00107559     0.00142539
     0.00000000     0.00000000     0.00000000
     0.00000000     0.00000000     0.00000000
     0.00000000     0.00000000     0.00000000
     0.00000000     0.00000000     0.00000000
     0.00000000     0.00000000     0.00000000
     0.00000000     0.00000000     0.00000000
     0.00000000     0.00000000     0.00000000
     0.00000000     0.00000000     0.00000000
     0.00000000     0.00052304     0.00094428
     0.00000000     0.00000000     0.00000000
     0.00000000     0.00000000     0.00000000
     0.00000000     0.00000000     0.00000000
     0.00000000     0.00000000     0.00000000
     0.00000000     0.00000000     0.00000000
     0.00000000     0.00000000     0.00000000
     0.00000000     0.00000000     0.00000000
     0.00000000     0.00000000     0.00000000
     0.00000000     0.00089699     0.00106517
     0.00000000     0.00000000     0.00000000
     0.00000000     0.00000000     0.00000000
     0.00000000     0.00000000     0.00000000
     0.00000000     0.00000000     0.00000000
     0.00000000     0.00000000     0.00000000
     0.00000000     0.00000000     0.00000000
     0.00000000     0.00000000     0.00000000
     0.00000000     0.00000000     0.00000000
     0.00000000     0.00174970     0.00164183
     0.00000000     0.00000000     0.00000000
     0.00000000     0.00000000     0.00000000
     0.00000000     0.00000000     0.00000000
     0.00000000     0.00000000     0.00000000
     0.00000000     0.00000000     0.00000000
     0.00000000     0.00000000     0.00000000
     0.00000000     0.00000000     0.00000000
     0.00000000     0.00000000     0.00000000
     0.00103911     0.00070368     0.00073646
     0.00922610     0.00375667     0.00446168
     0.00699329     0.00177905     0.00233495
    -0.00090252    -0.00107894     0.00168351
     0.00211272    -0.00077542     0.00196503
     0.00212067    -0.00426960     0.00825313
    -0.00381233    -0.00062324     0.00424973
    -0.03606051     0.01565736     0.00980978
    -0.12454037     0.06865648     0.01702968
     0.00188719    -0.00068833     0.00163002
     0.01788768    -0.00490195     0.01063826
     0.02067319    -0.00795010     0.00209480
     0.01830774    -0.00226523     0.00411383
     0.00251254    -0.00141832    -0.00157694
     0.02309642     0.00120137     0.00166646
     0.01403766     0.00184080    -0.00287484
     0.05255331     0.02388282    -0.00314293
    -0.17206379    -0.09989542     0.03193519
     0.00000000    -0.00113235     0.00202888
     0.00000000     0.00000000     0.00000000
     0.00000000     0.00000000     0.00000000
     0.00000000     0.00000000     0.00000000
     0.00000000     0.00000000     0.00000000
     0.00000000     0.00000000     0.00000000
     0.00000000     0.00000000     0.00000000
     0.00000000     0.00000000     0.00000000
     0.00000000     0.00000000     0.00000000
     0.00000000    -0.00290140     0.00193777
     0.00000000     0.00000000     0.00000000
     0.00000000     0.00000000     0.00000000
     0.00000000     0.00000000     0.00000000
     0.00000000     0.00000000     0.00000000
     0.00000000     0.00000000     0.00000000
     0.00000000     0.00000000     0.00000000
     0.00000000     0.00000000     0.00000000
     0.00000000     0.00000000     0.00000000
     0.00000000    -0.00058486     0.00074232
     0.00000000     0.00000000     0.00000000
     0.00000000     0.00000000     0.00000000
     0.00000000     0.00000000     0.00000000
     0.00000000     0.00000000     0.00000000
     0.00000000     0.00000000     0.00000000
     0.00000000     0.00000000     0.00000000
     0.00000000     0.00000000     0.00000000
     0.00000000     0.00000000     0.00000000
     0.00000000     0.00024682     0.00132488
     0.00000000     0.00000000     0.00000000
     0.00000000     0.00000000     0.00000000
     0.00000000     0.00000000     0.00000000
     0.00000000     0.00000000     0.00000000
     0.00000000     0.00000000     0.00000000
     0.00000000     0.00000000     0.00000000
     0.00000000     0.00000000     0.00000000
     0.00000000     0.00000000     0.00000000
     0.00000000    -0.00073682     0.00242298
     0.00000000     0.00000000     0.00000000
     0.00000000     0.00000000     0.00000000
     0.00000000     0.00000000     0.00000000
     0.00000000     0.00000000     0.00000000
     0.00000000     0.00000000     0.00000000
     0.00000000     0.00000000     0.00000000
     0.00000000     0.00000000     0.00000000
     0.09306413    -0.06420283    -0.09083321
     0.00000000    -0.00037710     0.00148466
     0.00000000     0.00000000     0.00000000
     0.00000000     0.00000000     0.00000000
     0.00000000     0.00000000     0.00000000
     0.00000000     0.00000000     0.00000000
     0.00000000     0.00000000     0.00000000
     0.00000000     0.00000000     0.00000000
     0.00000000     0.00000000     0.00000000
     0.00000000     0.00000000     0.00000000
     0.00000000     0.00099250     0.00140587
     0.00000000     0.00000000     0.00000000
     0.00000000     0.00000000     0.00000000
     0.00000000     0.00000000     0.00000000
     0.00000000     0.00000000     0.00000000
     0.00000000     0.00000000     0.00000000
     0.00000000     0.00000000     0.00000000
     0.00000000     0.00000000     0.00000000
     0.00000000     0.00000000     0.00000000
     0.00000000     0.00109061     0.00159719
     0.00000000     0.00000000     0.00000000
     0.00000000     0.00000000     0.00000000
     0.00000000     0.00000000     0.00000000
     0.00000000     0.00000000     0.00000000
     0.00000000     0.00000000     0.00000000
     0.00000000     0.00000000     0.00000000
     0.00000000     0.00000000     0.00000000
     0.00000000     0.00000000     0.00000000
     0.00000000     0.00272422     0.00261885
     0.00000000     0.00000000     0.00000000
     0.00000000     0.00000000     0.00000000
     0.00000000     0.00000000     0.00000000
     0.00000000     0.00000000     0.00000000
     0.00000000     0.00000000     0.00000000
     0.00000000     0.00000000     0.00000000
     0.00000000     0.00000000     0.00000000
     0.00000000     0.00000000     0.00000000
     0.00379033     0.00225569     0.00213839
     0.03239325     0.01368914     0.01356060
     0.01544690     0.00355249     0.00499652
     0.01190847    -0.00055090     0.00541498
     0.00379471    -0.00047426     0.00124048
     0.01468678    -0.00843145     0.01114618
     0.02975838    -0.00042197    -0.01099311
     0.01817370    -0.00570850    -0.00482995
    -0.15907013     0.08709388     0.03980929
     0.00134795    -0.00044755     0.00097133
     0.01020784    -0.00281329     0.00554518
     0.01047954    -0.00416287     0.00129758
     0.00985206    -0.00114254     0.00213257
     0.00089262    -0.00067371    -0.00061069
     0.01210345     0.00037295     0.00041194
     0.00618333     0.00114371    -0.00096013
     0.02657450     0.01201406    -0.00458274
    -0.07850491    -0.05011392     0.02729403
     0.00230765    -0.00094156     0.00166932
     0.02098178    -0.00652689     0.01044148
     0.01939611    -0.00768189     0.00313245
     0.01855880    -0.00237793     0.00368555
     0.00238012    -0.00103028    -0.00057655
     0.02245748     0.00013814     0.00014080
     0.01422769     0.00257143    -0.00214685
     0.04979758     0.02662250    -0.01028403
    -0.14288770    -0.09401325     0.07264636
     0.00166480    -0.00143081     0.00092189
     0.01396792    -0.00850811     0.00489159
     0.00517484    -0.00078711     0.00178462
     0.00532758    -0.00166593     0.00049943
     0.00478812    -0.00064411     0.00024471
     0.00571150     0.00047413     0.00020561
     0.01800867    -0.00346638    -0.00598512
     0.02052955     0.03443230     0.00658172
     0.01688882     0.03290316    -0.00252966
    -0.00002003    -0.00015158     0.00000613
     0.00003970    -0.00104231    -0.00041182
     0.00311662    -0.00178005     0.00061185
     0.00200506     0.00048419     0.00065013
     0.00230263    -0.00322695    -0.00085337
     0.00797709     0.00142219     0.00051828
     0.00480122    -0.00769306    -0.00365496
     0.01293857     0.01781324    -0.00574811
     0.03808363    -0.02494871    -0.05710906
     0.00034747     0.00017580     0.00038828
     0.00257479     0.00097609     0.00175266
    -0.00082962    -0.00078575    -0.00046239
     0.00257041    -0.00103873     0.00044204
     0.00009646    -0.00041880    -0.00010372
     0.00520066    -0.00447817    -0.00071260
     0.00960649     0.00147246    -0.00187901
     0.00652364     0.01679243    -0.00456867
     0.09570097    -0.00747551    -0.13815271
     0.00081365    -0.00026362     0.00081259
     0.00768251    -0.00145420     0.00445349
     0.00811295     0.00000654     0.00304291
     0.00290237    -0.00179680     0.00067188
     0.00436317    -0.00011280     0.00048260
     0.00115922    -0.00393055     0.00003500
    -0.00734317     0.00210455     0.00174291
    -0.00259635     0.01764756     0.00084528
     0.01975678     0.00046125    -0.02695135
     0.00013973    -0.00023462     0.00025872
     0.00059783    -0.00171032     0.00068583
    -0.00175550    -0.00157384    -0.00043911
     0.00205867    -0.00023855     0.00051733
    -0.00061129    -0.00265920     0.00033594
     0.00336934     0.00063745    -0.00007794
     0.00096934    -0.00211775    -0.00030439
    -0.00003638    -0.01503296     0.00378929
     0.04183616     0.01165431    -0.04713275
     0.00064214     0.00039632     0.00051380
     0.00532119     0.00221959     0.00256423
     0.00174039    -0.00002930     0.00068677
     0.00172474    -0.00204485     0.00113116
     0.00047728    -0.00085397     0.00025577
     0.00643422    -0.00216860     0.00080008
     0.00275101     0.00360131    -0.00209997
     0.00593416    -0.01584524    -0.00012680
     0.02304101     0.06523666    -0.03522867
     0.00075499     0.00043195     0.00058421
     0.00650012     0.00236651     0.00306162
     0.00523250     0.00039708     0.00195125
     0.00550623    -0.00161019     0.00228697
     0.00047891    -0.00150884     0.00081480
     0.00788987    -0.00539918     0.00275289
     0.02168838     0.00211835    -0.00685232
     0.01557734    -0.03035541     0.00538587
    -0.03824149     0.06488317     0.00470402
     0.00372577     0.00223506     0.00210992
     0.03181799     0.01395953     0.01293807
     0.01521275     0.00215206     0.00554531
     0.01319728    -0.00046265     0.00420625
     0.00346580    -0.00181466     0.00173836
     0.01544276    -0.00956282     0.00700296
     0.03447300     0.00109284    -0.01121058
     0.02749527    -0.01360252    -0.00670937
    -0.17478841     0.11642139     0.07003116
     0.00247854     0.00134697     0.00126198
     0.01729233     0.00740414     0.00701873
     0.00797940     0.00149577     0.00276109
     0.00679961    -0.00022369     0.00249069
     0.00189224    -0.00051734     0.00075626
     0.00792860    -0.00467816     0.00460162
     0.01690534     0.00030740    -0.00607738
     0.01328672    -0.00454802    -0.00393559
    -0.08112612     0.04837290     0.02687814
     0.02618069     0.00133159     0.01642629
    -0.01533100    -0.01905356     0.00542854
    -0.01995173    -0.00538964    -0.00053576
    -0.01981262    -0.00524313     0.00080589
    -0.02094165    -0.00564320    -0.00039121
    -0.01890354    -0.00504788     0.00021282
    -0.01890020    -0.00506793    -0.00004471
    -0.01791982    -0.00480961    -0.00009934
    -0.01594055    -0.00427747    -0.00007607
    -0.01508899    -0.00404589    -0.00003417
    -0.00691627    -0.00266017     0.00004901
     0.00000000     0.00000000     0.00000000
     0.00000000     0.00000000     0.00000000
     0.00000000     0.00000000     0.00000000
     0.00000000     0.00000000     0.00000000
     0.00000000     0.00000000     0.00000000
     0.00000000     0.00000000     0.00000000
     0.00000000     0.00000000     0.00000000
     0.00000000     0.00000000     0.00000000
     0.00000000     0.00000000     0.00000000
     0.00000000     0.00000000     0.00000000
     0.00178984    -0.00667986     0.00046917
     0.00000000     0.00000000     0.00000000
     0.00000000     0.00000000     0.00000000
     0.00000000     0.00000000     0.00000000
     0.00000000     0.00000000     0.00000000
     0.00000000     0.00000000     0.00000000
     0.00000000     0.00000000     0.00000000
     0.00000000     0.00000000     0.00000000
     0.00000000     0.00000000     0.00000000
     0.00000000     0.00000000     0.00000000
     0.00000000     0.00000000     0.00000000
     0.00240675    -0.00898215     0.00072731
     0.00000000     0.00000000     0.00000000
     0.00000000     0.00000000     0.00000000
     0.00000000     0.00000000     0.00000000
     0.00000000     0.00000000     0.00000000
     0.00000000     0.00000000     0.00000000
     0.00000000     0.00000000     0.00000000
     0.00000000     0.00000000     0.00000000
     0.00000000     0.00000000     0.00000000
     0.00000000     0.00000000     0.00000000
     0.00000000     0.00000000     0.00000000
     0.00085574    -0.00319368     0.00092754
     0.00000000     0.00000000     0.00000000
     0.00000000     0.00000000     0.00000000
     0.00000000     0.00000000     0.00000000
     0.00000000     0.00000000     0.00000000
     0.00000000     0.00000000     0.00000000
     0.00000000     0.00000000     0.00000000
     0.00000000     0.00000000     0.00000000
     0.00000000     0.00000000     0.00000000
     0.00000000     0.00000000     0.00000000
     0.00000000     0.00000000     0.00000000
    -0.00017506     0.00065327     0.00105679
    -0.15171941     0.10963993     0.00229670
    -0.03457401     0.05967709     0.00254972
     0.06187476     0.01644885     0.00160013
     0.05988190     0.01565726     0.00476262
     0.03079317     0.00790310     0.00426699
     0.01076006     0.00269685     0.00228898
    -0.00252170    -0.00076742     0.00112650
    -0.00637984    -0.00177693     0.00082778
    -0.01159126    -0.00315033     0.00054617
    -0.01213617    -0.00328454     0.00040114
    -0.00680544    -0.00169015     0.00017499
     0.01217008     0.02310145     0.05730905
    -0.01773912    -0.02109152     0.02567756
    -0.01731647    -0.00492669    -0.00239877
    -0.02327507    -0.00575691     0.00300427
    -0.02044105    -0.00553141    -0.00044263
    -0.02061654    -0.00533920     0.00110900
    -0.01993052    -0.00533582     0.00004921
    -0.01829523    -0.00488930     0.00014449
    -0.01680165    -0.00446630     0.00027023
    -0.01451047    -0.00382441     0.00040781
    -0.00682147    -0.00256981     0.00029240
     0.00000000     0.00000000     0.00000000
     0.00000000     0.00000000     0.00000000
     0.00000000     0.00000000     0.00000000
     0.00000000     0.00000000     0.00000000
     0.00000000     0.00000000     0.00000000
     0.00000000     0.00000000     0.00000000
     0.00000000     0.00000000     0.00000000
     0.00000000     0.00000000     0.00000000
     0.00000000     0.00000000     0.00000000
     0.00000000     0.00000000     0.00000000
     0.00170116    -0.00634895     0.00216712
     0.00000000     0.00000000     0.00000000
     0.00000000     0.00000000     0.00000000
     0.00000000     0.00000000     0.00000000
     0.00000000     0.00000000     0.00000000
     0.00000000     0.00000000     0.00000000
     0.00000000     0.00000000     0.00000000
     0.00000000     0.00000000     0.00000000
     0.00000000     0.00000000     0.00000000
     0.00000000     0.00000000     0.00000000
     0.00000000     0.00000000     0.00000000
     0.00250882    -0.00936322     0.00342332
     0.00000000     0.00000000     0.00000000
     0.00000000     0.00000000     0.00000000
     0.00000000     0.00000000     0.00000000
     0.00000000     0.00000000     0.00000000
     0.00000000     0.00000000     0.00000000
     0.00000000     0.00000000     0.00000000
     0.00000000     0.00000000     0.00000000
     0.00000000     0.00000000     0.00000000
     0.00000000     0.00000000     0.00000000
     0.00000000     0.00000000     0.00000000
     0.00080160    -0.00299160     0.00433044
     0.00000000     0.00000000     0.00000000
     0.00000000     0.00000000     0.00000000
     0.00000000     0.00000000     0.00000000
     0.00000000     0.00000000     0.00000000
     0.00000000     0.00000000     0.00000000
     0.00000000     0.00000000     0.00000000
     0.00000000     0.00000000     0.00000000
     0.00000000     0.00000000     0.00000000
     0.00000000     0.00000000     0.00000000
     0.00000000     0.00000000     0.00000000
    -0.00008721     0.00032553     0.00479286
    -0.15962178     0.11284807     0.02835138
    -0.03208216     0.04635732     0.03467256
     0.05929605     0.01171310     0.02365420
     0.05165326     0.00943920     0.02414508
     0.02986657     0.00522446     0.01490437
     0.00679024     0.00037503     0.00780291
    -0.00138142    -0.00118899     0.00438767
    -0.00875306    -0.00295776     0.00336137
    -0.01041941    -0.00325741     0.00252790
    -0.01397968    -0.00410309     0.00197781
    -0.00705755    -0.00184850     0.00081151
    -0.01926698     0.01808371     0.14133867
    -0.02920112    -0.04320513     0.03474831
    -0.01995869    -0.00272111     0.00686967
    -0.02634594    -0.00680015     0.00095385
    -0.02465089    -0.00546410     0.00313401
    -0.02469820    -0.00657066     0.00024764
    -0.02259544    -0.00591820     0.00040418
    -0.02079399    -0.00567985    -0.00023865
    -0.01740333    -0.00454837     0.00037592
    -0.01559631    -0.00396308     0.00066362
    -0.00688800    -0.00252615     0.00049603
     0.00000000     0.00000000     0.00000000
     0.00000000     0.00000000     0.00000000
     0.00000000     0.00000000     0.00000000
     0.00000000     0.00000000     0.00000000
     0.00000000     0.00000000     0.00000000
     0.00000000     0.00000000     0.00000000
     0.00000000     0.00000000     0.00000000
     0.00000000     0.00000000     0.00000000
     0.00000000     0.00000000     0.00000000
     0.00000000     0.00000000     0.00000000
     0.00159571    -0.00595525     0.00377055
     0.00000000     0.00000000     0.00000000
     0.00000000     0.00000000     0.00000000
     0.00000000     0.00000000     0.00000000
     0.00000000     0.00000000     0.00000000
     0.00000000     0.00000000     0.00000000
     0.00000000     0.00000000     0.00000000
     0.00000000     0.00000000     0.00000000
     0.00000000     0.00000000     0.00000000
     0.00000000     0.00000000     0.00000000
     0.00000000     0.00000000     0.00000000
     0.00232153    -0.00866429     0.00637800
     0.00000000     0.00000000     0.00000000
     0.00000000     0.00000000     0.00000000
     0.00000000     0.00000000     0.00000000
     0.00000000     0.00000000     0.00000000
     0.00000000     0.00000000     0.00000000
     0.00000000     0.00000000     0.00000000
     0.00000000     0.00000000     0.00000000
     0.00000000     0.00000000     0.00000000
     0.00000000     0.00000000     0.00000000
     0.00000000     0.00000000     0.00000000
     0.00094585    -0.00353025     0.00792526
     0.00000000     0.00000000     0.00000000
     0.00000000     0.00000000     0.00000000
     0.00000000     0.00000000     0.00000000
     0.00000000     0.00000000     0.00000000
     0.00000000     0.00000000     0.00000000
     0.00000000     0.00000000     0.00000000
     0.00000000     0.00000000     0.00000000
     0.00000000     0.00000000     0.00000000
     0.00000000     0.00000000     0.00000000
     0.00000000     0.00000000     0.00000000
     0.00019355    -0.00072213     0.00795879
    -0.20086467     0.13504976     0.06851844
    -0.02992795     0.03308956     0.05444132
     0.04487992    -0.00358182     0.04491490
     0.04031530    -0.00293546     0.03957387
     0.01617667    -0.00411015     0.02444493
     0.00358257    -0.00337168     0.01241720
    -0.00671549    -0.00477952     0.00859849
    -0.00862352    -0.00424041     0.00552019
    -0.01268941    -0.00517812     0.00513250
    -0.01210129    -0.00453184     0.00370850
    -0.00663506    -0.00198126     0.00137553
    -0.03900852     0.03722845     0.23453906
    -0.04657994    -0.07720865     0.02130977
    -0.02822856     0.00303806     0.01883145
    -0.03998769    -0.01006831     0.00152847
    -0.03466433    -0.00650194     0.00507472
    -0.03321751    -0.00963637    -0.00122444
    -0.02932520    -0.00794356    -0.00012055
    -0.02501357    -0.00739552    -0.00122280
    -0.02075195    -0.00562002    -0.00004641
    -0.01540776    -0.00384498     0.00058551
    -0.00659654    -0.00226018     0.00052756
     0.00000000     0.00000000     0.00000000
     0.00000000     0.00000000     0.00000000
     0.00000000     0.00000000     0.00000000
     0.00000000     0.00000000     0.00000000
     0.00000000     0.00000000     0.00000000
     0.00000000     0.00000000     0.00000000
     0.00000000     0.00000000     0.00000000
     0.00000000     0.00000000     0.00000000
     0.00000000     0.00000000     0.00000000
     0.00000000     0.00000000     0.00000000
     0.00131445    -0.00490539     0.00377012
     0.00000000     0.00000000     0.00000000
     0.00000000     0.00000000     0.00000000
     0.00000000     0.00000000     0.00000000
     0.00000000     0.00000000     0.00000000
     0.00000000     0.00000000     0.00000000
     0.00000000     0.00000000     0.00000000
     0.00000000     0.00000000     0.00000000
     0.00000000     0.00000000     0.00000000
     0.00000000     0.00000000     0.00000000
     0.00000000     0.00000000     0.00000000
     0.00233104    -0.00869926     0.00647320
     0.00000000     0.00000000     0.00000000
     0.00000000     0.00000000     0.00000000
     0.00000000     0.00000000     0.00000000
     0.00000000     0.00000000     0.00000000
     0.00000000     0.00000000     0.00000000
     0.00000000     0.00000000     0.00000000
     0.00000000     0.00000000     0.00000000
     0.00000000     0.00000000     0.00000000
     0.00000000     0.00000000     0.00000000
     0.00000000     0.00000000     0.00000000
     0.00110336    -0.00411783     0.00876701
     0.00000000     0.00000000     0.00000000
     0.00000000     0.00000000     0.00000000
     0.00000000     0.00000000     0.00000000
     0.00000000     0.00000000     0.00000000
     0.00000000     0.00000000     0.00000000
     0.00000000     0.00000000     0.00000000
     0.00000000     0.00000000     0.00000000
     0.00000000     0.00000000     0.00000000
     0.00000000     0.00000000     0.00000000
     0.00000000     0.00000000     0.00000000
     0.00071264    -0.00265966     0.00957270
    -0.22690431     0.13628249     0.11365527
     0.01368509    -0.02928077     0.10299290
     0.03715574    -0.01972301     0.05504401
     0.01298114    -0.01874998     0.04179530
     0.00273564    -0.01176747     0.02326307
    -0.00848349    -0.01132673     0.01690543
    -0.00974376    -0.00787952     0.00972842
    -0.01451431    -0.00843940     0.00845913
    -0.01317985    -0.00692791     0.00629437
    -0.01414114    -0.00674441     0.00549267
    -0.00660010    -0.00242405     0.00177242
    -0.18514451     0.12996425     0.57364087
    -0.05919730    -0.13875577     0.01625719
    -0.06366558     0.02050710     0.04828126
    -0.06875312    -0.02927775    -0.01366999
    -0.05182301    -0.00704917     0.00881145
    -0.04924473    -0.01830055    -0.00649710
    -0.03986291    -0.01111340    -0.00057384
    -0.03503538    -0.01175153    -0.00302423
    -0.02614293    -0.00812268    -0.00142972
    -0.01719070    -0.00545500    -0.00104245
    -0.00587105    -0.00209421     0.00047912
     0.00000000     0.00000000     0.00000000
     0.00000000     0.00000000     0.00000000
     0.00000000     0.00000000     0.00000000
     0.00000000     0.00000000     0.00000000
     0.00000000     0.00000000     0.00000000
     0.00000000     0.00000000     0.00000000
     0.00000000     0.00000000     0.00000000
     0.00000000     0.00000000     0.00000000
     0.00000000     0.00000000     0.00000000
     0.00000000     0.00000000     0.00000000
     0.00166229    -0.00620368     0.00157339
     0.00000000     0.00000000     0.00000000
     0.00000000     0.00000000     0.00000000
     0.00000000     0.00000000     0.00000000
     0.00000000     0.00000000     0.00000000
     0.00000000     0.00000000     0.00000000
     0.00000000     0.00000000     0.00000000
     0.00000000     0.00000000     0.00000000
     0.00000000     0.00000000     0.00000000
     0.00000000     0.00000000     0.00000000
     0.00000000     0.00000000     0.00000000
     0.00203480    -0.00759364     0.00348836
     0.00000000     0.00000000     0.00000000
     0.00000000     0.00000000     0.00000000
     0.00000000     0.00000000     0.00000000
     0.00000000     0.00000000     0.00000000
     0.00000000     0.00000000     0.00000000
     0.00000000     0.00000000     0.00000000
     0.00000000     0.00000000     0.00000000
     0.00000000     0.00000000     0.00000000
     0.00000000     0.00000000     0.00000000
     0.00000000     0.00000000     0.00000000
     0.00158600    -0.00591872     0.00551921
     0.00000000     0.00000000     0.00000000
     0.00000000     0.00000000     0.00000000
     0.00000000     0.00000000     0.00000000
     0.00000000     0.00000000     0.00000000
     0.00000000     0.00000000     0.00000000
     0.00000000     0.00000000     0.00000000
     0.00000000     0.00000000     0.00000000
     0.00000000     0.00000000     0.00000000
     0.00000000     0.00000000     0.00000000
     0.00000000     0.00000000     0.00000000
     0.00184252    -0.00687653     0.00512329
    -0.38435398     0.27212790     0.12062232
     0.04069862    -0.08551761     0.13509212
    -0.00902585    -0.04472672     0.05559200
    -0.01446176    -0.02324203     0.02579845
    -0.01927389    -0.02828829     0.03015410
    -0.02058182    -0.01541991     0.01307616
    -0.02118281    -0.01694113     0.01465784
    -0.02056349    -0.01130616     0.00761225
    -0.01975902    -0.01173668     0.00840666
    -0.01372935    -0.00838214     0.00615177
    -0.00545179    -0.00255040     0.00086175
    -0.14867626     0.08535508     0.32654997
    -0.03125701    -0.08740220     0.01335470
    -0.04011768     0.02026423     0.02571918
    -0.03934809    -0.02086748    -0.00849002
    -0.03024766    -0.00236235     0.00474073
    -0.02799163    -0.01210617    -0.00379301
    -0.02273022    -0.00625370    -0.00015330
    -0.01988529    -0.00745882    -0.00174910
    -0.01470437    -0.00485212    -0.00076025
    -0.00945768    -0.00355397    -0.00082253
    -0.00432390    -0.00099465     0.00026158
    -0.47774989     0.26156735     0.78331083
    -0.07672040    -0.23308520     0.05448867
    -0.11382753     0.06534782     0.04889179
    -0.09415835    -0.06448241    -0.01872514
    -0.07737718    -0.00263222     0.00920667
    -0.06761618    -0.03434572    -0.00793987
    -0.05624723    -0.01573732    -0.00027170
    -0.04831755    -0.02038734    -0.00366338
    -0.03625088    -0.01298742    -0.00157293
    -0.02349779    -0.01036437    -0.00194194
    -0.00826724    -0.00252482     0.00044962
    -0.32151679     0.33843902     0.35908833
    -0.08274813    -0.20729631     0.07428547
    -0.14170245     0.04970152     0.01615559
    -0.05354053    -0.08837547    -0.01134942
    -0.06312629    -0.00282684     0.00285989
    -0.03976670    -0.03649454    -0.00385450
    -0.03769557    -0.01573736    -0.00067327
    -0.02966811    -0.01895925    -0.00158449
    -0.02436398    -0.01401274    -0.00103911
    -0.01836398    -0.01145147    -0.00094445
    -0.00789086    -0.00374103     0.00029161
    -0.41064689     0.50310329     0.24369119
    -0.06743816    -0.17502574     0.10553152
    -0.08215712    -0.03178383     0.00440763
    -0.03870326    -0.07829639     0.01025081
    -0.04736221    -0.02777740     0.00331734
    -0.03096243    -0.03632376     0.00443691
    -0.03074209    -0.02129834     0.00228866
    -0.02579866    -0.02093588     0.00231320
    -0.02158401    -0.01527605     0.00158498
    -0.01747200    -0.01142582     0.00116369
    -0.00785453    -0.00356258     0.00070858
    -0.51821868     0.48187838     0.19713435
     0.03435140    -0.17587188     0.14993741
    -0.02719667    -0.08153591     0.04057160
    -0.02508950    -0.05077586     0.02187663
    -0.03193773    -0.05137069     0.02321885
    -0.02997881    -0.03062712     0.01140710
    -0.03138674    -0.02979897     0.01147796
    -0.02880242    -0.02094105     0.00674099
    -0.02794735    -0.01964852     0.00647461
    -0.01843242    -0.01431586     0.00495373
    -0.00765535    -0.00305831     0.00056688
    -0.21566568     0.17338347     0.06785370
     0.02221400    -0.06183786     0.06933215
    -0.00807216    -0.03152985     0.02462302
    -0.00940456    -0.01583586     0.01105558
    -0.01175259    -0.01979165     0.01395652
    -0.01181620    -0.01030597     0.00592820
    -0.01230067    -0.01143003     0.00682921
    -0.01147115    -0.00736045     0.00355951
    -0.01124544    -0.00756701     0.00382797
    -0.00725055    -0.00533692     0.00283829
    -0.00397636    -0.00127528     0.00013678
    -0.21138596     0.05506965     0.01929024
    -0.26879018     0.07225017    -0.00279455
    -0.23978682     0.06406999     0.00220845
    -0.19465545     0.05219821    -0.00050073
    -0.12872967     0.03479379    -0.00368065
    -0.05470743     0.01461784     0.00050995
    -0.03536228     0.00964259    -0.00205493
    -0.00152534     0.01063694     0.00004854
     0.00000000     0.00000000     0.00000000
     0.00000000     0.00000000     0.00000000
     0.00000000     0.00000000     0.00000000
     0.00000000     0.00000000     0.00000000
     0.00000000     0.00000000     0.00000000
     0.00000000     0.00000000     0.00000000
     0.00000000     0.00000000     0.00000000
     0.00000000     0.00000000     0.00000000
     0.02264872     0.08452857     0.00358607
     0.00000000     0.00000000     0.00000000
     0.00000000     0.00000000     0.00000000
     0.00000000     0.00000000     0.00000000
     0.00000000     0.00000000     0.00000000
     0.00000000     0.00000000     0.00000000
     0.00000000     0.00000000     0.00000000
     0.00000000     0.00000000     0.00000000
     0.00000000     0.00000000     0.00000000
     0.03171570     0.11836740     0.00862613
     0.00000000     0.00000000     0.00000000
     0.00000000     0.00000000     0.00000000
     0.00000000     0.00000000     0.00000000
     0.00000000     0.00000000     0.00000000
     0.00000000     0.00000000     0.00000000
     0.00000000     0.00000000     0.00000000
     0.00000000     0.00000000     0.00000000
     0.00000000     0.00000000     0.00000000
     0.02128851     0.07944644     0.00810854
     0.00000000     0.00000000     0.00000000
     0.00000000     0.00000000     0.00000000
     0.00000000     0.00000000     0.00000000
     0.00000000     0.00000000     0.00000000
     0.00000000     0.00000000     0.00000000
     0.00000000     0.00000000     0.00000000
     0.00000000     0.00000000     0.00000000
     0.00000000     0.00000000     0.00000000
     0.00967375     0.03610256     0.00661372
    -0.07769806    -0.08071245    -0.02931849
     0.47680707    -0.12894408    -0.01451889
     0.56900099    -0.15207447     0.00476863
     0.47421173    -0.12614664     0.01123704
     0.30958583    -0.08225089     0.00862080
     0.21075958    -0.05580101     0.00825277
     0.08287590    -0.02179443     0.00506077
     0.06472216    -0.01684914     0.00605030
     0.00873304     0.00170711     0.00152182
     0.00392043    -0.01622835     0.05759799
    -0.25999729     0.05316411     0.09593419
    -0.28403053     0.07769029    -0.01228920
    -0.25758337     0.06461006     0.02856157
    -0.21128492     0.05436949     0.01069451
    -0.13729085     0.03658806     0.00512006
    -0.07067646     0.01697775     0.00997907
    -0.03243248     0.00870079     0.00134236
    -0.00137982     0.00847198     0.00125752
     0.00000000     0.00000000     0.00000000
     0.00000000     0.00000000     0.00000000
     0.00000000     0.00000000     0.00000000
     0.00000000     0.00000000     0.00000000
     0.00000000     0.00000000     0.00000000
     0.00000000     0.00000000     0.00000000
     0.00000000     0.00000000     0.00000000
     0.00000000     0.00000000     0.00000000
     0.01837475     0.06857675     0.01409900
     0.00000000     0.00000000     0.00000000
     0.00000000     0.00000000     0.00000000
     0.00000000     0.00000000     0.00000000
     0.00000000     0.00000000     0.00000000
     0.00000000     0.00000000     0.00000000
     0.00000000     0.00000000     0.00000000
     0.00000000     0.00000000     0.00000000
     0.00000000     0.00000000     0.00000000
     0.02882039     0.10756167     0.04042349
     0.00000000     0.00000000     0.00000000
     0.00000000     0.00000000     0.00000000
     0.00000000     0.00000000     0.00000000
     0.00000000     0.00000000     0.00000000
     0.00000000     0.00000000     0.00000000
     0.00000000     0.00000000     0.00000000
     0.00000000     0.00000000     0.00000000
     0.00000000     0.00000000     0.00000000
     0.01887953     0.07045620     0.03468695
     0.00000000     0.00000000     0.00000000
     0.00000000     0.00000000     0.00000000
     0.00000000     0.00000000     0.00000000
     0.00000000     0.00000000     0.00000000
     0.00000000     0.00000000     0.00000000
     0.00000000     0.00000000     0.00000000
     0.00000000     0.00000000     0.00000000
     0.00000000     0.00000000     0.00000000
     0.00813936     0.03037506     0.02944800
    -0.09243057    -0.10367425    -0.06987770
     0.49545732    -0.13775597    -0.02415629
     0.59972126    -0.15591297     0.02539392
     0.46181828    -0.11761598     0.03094202
     0.32791727    -0.08346638     0.02291818
     0.17773149    -0.04289444     0.02397331
     0.11594154    -0.02775678     0.01731429
     0.00883253     0.00184039     0.02288722
     0.00022857     0.00376641     0.00632587
    -0.16355468     0.00199301     0.15680038
    -0.34433295     0.05772454     0.10575020
    -0.32704363     0.07303848     0.03668195
    -0.31720329     0.08189527     0.01309191
    -0.24614622     0.04459424     0.05858487
    -0.17500290     0.05585621    -0.02198616
    -0.06801962     0.00032409     0.04927914
    -0.07248808     0.02527008    -0.01510405
    -0.00639614     0.01328392    -0.00362739
     0.00000000     0.00000000     0.00000000
     0.00000000     0.00000000     0.00000000
     0.00000000     0.00000000     0.00000000
     0.00000000     0.00000000     0.00000000
     0.00000000     0.00000000     0.00000000
     0.00000000     0.00000000     0.00000000
     0.00000000     0.00000000     0.00000000
     0.00000000     0.00000000     0.00000000
     0.02276670     0.08496412     0.00500662
     0.00000000     0.00000000     0.00000000
     0.00000000     0.00000000     0.00000000
     0.00000000     0.00000000     0.00000000
     0.00000000     0.00000000     0.00000000
     0.00000000     0.00000000     0.00000000
     0.00000000     0.00000000     0.00000000
     0.00000000     0.00000000     0.00000000
     0.00000000     0.00000000     0.00000000
     0.02919029     0.10893670     0.07192457
     0.00000000     0.00000000     0.00000000
     0.00000000     0.00000000     0.00000000
     0.00000000     0.00000000     0.00000000
     0.00000000     0.00000000     0.00000000
     0.00000000     0.00000000     0.00000000
     0.00000000     0.00000000     0.00000000
     0.00000000     0.00000000     0.00000000
     0.00000000     0.00000000     0.00000000
     0.01650567     0.06159930     0.03884437
     0.00000000     0.00000000     0.00000000
     0.00000000     0.00000000     0.00000000
     0.00000000     0.00000000     0.00000000
     0.00000000     0.00000000     0.00000000
     0.00000000     0.00000000     0.00000000
     0.00000000     0.00000000     0.00000000
     0.00000000     0.00000000     0.00000000
     0.00000000     0.00000000     0.00000000
     0.00905702     0.03379935     0.04374351
    -0.14749145    -0.17502437    -0.14242188
     0.62152515    -0.18418603    -0.04831826
     0.68026994    -0.16272708     0.05474790
     0.52513432    -0.11926545     0.06047173
     0.33821217    -0.07548977     0.04254004
     0.22402224    -0.04056727     0.05417977
     0.05595989    -0.00160947     0.03803538
     0.05734096    -0.00066817     0.04209150
     0.00825120     0.00357027     0.01058867
    -0.38512267     0.03497643     0.24856618
    -0.45768928     0.11596093     0.02076869
    -0.42433040     0.02597238     0.15571645
    -0.42942440     0.13927417    -0.03997415
    -0.34754703     0.02690016     0.11990013
    -0.22130908     0.10592905    -0.08264817
    -0.12571331    -0.02523296     0.10717433
    -0.10744617     0.06143019    -0.05862605
    -0.00884284     0.02381994    -0.01391799
     0.00000000     0.00000000     0.00000000
     0.00000000     0.00000000     0.00000000
     0.00000000     0.00000000     0.00000000
     0.00000000     0.00000000     0.00000000
     0.00000000     0.00000000     0.00000000
     0.00000000     0.00000000     0.00000000
     0.00000000     0.00000000     0.00000000
     0.00000000     0.00000000     0.00000000
     0.03272297     0.12212523    -0.01958773
     0.00000000     0.00000000     0.00000000
     0.00000000     0.00000000     0.00000000
     0.00000000     0.00000000     0.00000000
     0.00000000     0.00000000     0.00000000
     0.00000000     0.00000000     0.00000000
     0.00000000     0.00000000     0.00000000
     0.00000000     0.00000000     0.00000000
     0.00000000     0.00000000     0.00000000
     0.02891871     0.10792453     0.05486346
     0.00000000     0.00000000     0.00000000
     0.00000000     0.00000000     0.00000000
     0.00000000     0.00000000     0.00000000
     0.00000000     0.00000000     0.00000000
     0.00000000     0.00000000     0.00000000
     0.00000000     0.00000000     0.00000000
     0.00000000     0.00000000     0.00000000
     0.00000000     0.00000000     0.00000000
     0.00591418     0.02207144     0.01693452
     0.00000000     0.00000000     0.00000000
     0.00000000     0.00000000     0.00000000
     0.00000000     0.00000000     0.00000000
     0.00000000     0.00000000     0.00000000
     0.00000000     0.00000000     0.00000000
     0.00000000     0.00000000     0.00000000
     0.00000000     0.00000000     0.00000000
     0.00000000     0.00000000     0.00000000
     0.00960971     0.03586349     0.04330844
    -0.23040728    -0.31731517    -0.23489759
     0.86797847    -0.29602446    -0.11593072
     0.92555160    -0.21314224     0.06428629
     0.63035267    -0.12886351     0.07349201
     0.44649130    -0.07567526     0.07966319
     0.18963575    -0.00077461     0.09232775
     0.10233112     0.00917580     0.06677311
    -0.00950133     0.03561253     0.06115196
    -0.00158711     0.00942419     0.01305268
    -0.54469656    -0.04164478     0.37156311
    -0.62826439     0.32779649    -0.20143913
    -0.60800241    -0.10400852     0.34364735
    -0.63687890     0.30553609    -0.17211648
    -0.49720388    -0.01100723     0.18663169
    -0.33851061     0.21218560    -0.15653307
    -0.13977098    -0.06678571     0.13559824
    -0.23052829     0.13611127    -0.09628820
    -0.02646972     0.03195582    -0.02100881
     0.00000000     0.00000000     0.00000000
     0.00000000     0.00000000     0.00000000
     0.00000000     0.00000000     0.00000000
     0.00000000     0.00000000     0.00000000
     0.00000000     0.00000000     0.00000000
     0.00000000     0.00000000     0.00000000
     0.00000000     0.00000000     0.00000000
     0.00000000     0.00000000     0.00000000
     0.02570717     0.09593924    -0.03426000
     0.00000000     0.00000000     0.00000000
     0.00000000     0.00000000     0.00000000
     0.00000000     0.00000000     0.00000000
     0.00000000     0.00000000     0.00000000
     0.00000000     0.00000000     0.00000000
     0.00000000     0.00000000     0.00000000
     0.00000000     0.00000000     0.00000000
     0.00000000     0.00000000     0.00000000
     0.02231423     0.08327836     0.00960231
     0.00000000     0.00000000     0.00000000
     0.00000000     0.00000000     0.00000000
     0.00000000     0.00000000     0.00000000
     0.00000000     0.00000000     0.00000000
     0.00000000     0.00000000     0.00000000
     0.00000000     0.00000000     0.00000000
     0.00000000     0.00000000     0.00000000
     0.00000000     0.00000000     0.00000000
     0.00506545     0.01890476    -0.00331479
     0.00000000     0.00000000     0.00000000
     0.00000000     0.00000000     0.00000000
     0.00000000     0.00000000     0.00000000
     0.00000000     0.00000000     0.00000000
     0.00000000     0.00000000     0.00000000
     0.00000000     0.00000000     0.00000000
     0.00000000     0.00000000     0.00000000
     0.00000000     0.00000000     0.00000000
     0.00953541     0.03558508     0.02149045
    -0.24222858    -0.58827431    -0.43209482
     1.38852219    -0.50796756    -0.17806823
     1.09432857    -0.24833529     0.05992149
     0.73939404    -0.13247462     0.08450984
     0.22560056     0.04513788     0.13738170
     0.06976594     0.03996174     0.07694990
    -0.05792886     0.11744949     0.13214601
     0.06357635     0.03964552     0.07392479
     0.01113802     0.00798702     0.01080914
    -0.32543415    -0.11469210     0.19924651
    -0.34658460     0.24243764    -0.12301539
    -0.36337158    -0.12382540     0.18311294
    -0.35752116     0.21600821    -0.09900934
    -0.29267091    -0.03924780     0.09730615
    -0.18818570     0.15377151    -0.08517122
    -0.08225064    -0.06054480     0.06833761
    -0.13379479     0.09511206    -0.04914477
    -0.02235085     0.02113687    -0.01177852
    -0.90997320    -0.59539282     0.55488756
    -0.83589861     0.68242433    -0.23665475
    -0.95436177    -0.36988953     0.33114151
    -0.84632991     0.60406233    -0.19268827
    -0.74776179    -0.14034589     0.17885924
    -0.43633697     0.43464617    -0.16346713
    -0.24056714    -0.19255072     0.13104291
    -0.27135267     0.24070848    -0.08866441
    -0.03048438     0.04863586    -0.01933209
    -0.46117544    -1.04070181     0.23842307
    -0.52066264     0.36345688    -0.05011474
    -0.77162816     0.00263346     0.04746588
    -0.46123161     0.41970191    -0.05274521
    -0.54046329     0.02819500     0.03094879
    -0.22453662     0.27793564    -0.03969712
    -0.30693559    -0.12645306     0.04144796
     0.11902627     0.05604865    -0.01513653
     0.02413158     0.02032052    -0.00249432
    -0.40762456    -1.45385050    -0.10586526
     0.21289676    -0.25367771    -0.04094109
    -0.07573722     0.21821167     0.03423316
    -0.31942292     0.27480976     0.02772289
    -0.25134444     0.28902793     0.03976169
    -0.27317665     0.13769712     0.00829301
    -0.11102064     0.07741991     0.01300678
    -0.06420924     0.05087802     0.00491412
    -0.00669906     0.00806704    -0.00024397
    -0.33047268    -1.36155648    -0.44853096
     1.83819014    -0.70557761    -0.11450772
     1.35532376    -0.29385495     0.03355146
     0.90161661    -0.02625984     0.10802650
     0.19934613     0.15814801     0.11002914
     0.03446010     0.12950855     0.07289084
    -0.11062805     0.21437518     0.10113838
     0.09061440     0.08573569     0.05979179
     0.01562328     0.01224754     0.00865543
    -0.13178794    -0.44297621    -0.23238535
     0.80461807    -0.30130589    -0.07323042
     0.60994271    -0.14061891     0.01993155
     0.41922057    -0.04946642     0.05097753
     0.10276995     0.04751108     0.06317335
     0.03064350     0.03886465     0.03864498
    -0.04517409     0.08615333     0.06228155
     0.04539321     0.03010787     0.03524212
     0.00965970     0.00419286     0.00539629
     0.00000000     0.00000000     0.00000000
     0.00000000     0.00000000     0.00000000
     0.00000000     0.00000000     0.00000000
     0.00000000     0.00000000     0.00000000
     0.00000000     0.00000000     0.00000000
     0.00000000     0.00000000     0.00000000
     0.00000000     0.00000000     0.00000000
     0.00000000     0.00000000     0.00000000
     0.00000000     0.00000000     0.00000000
     0.00000000     0.00000000     0.00000000
     0.00000000     0.00000000     0.00000000
     0.00000000     0.00000000     0.00000000
     0.00000000     0.00000000     0.00000000
     0.00000000     0.00000000     0.00000000
     0.00000000     0.00000000     0.00000000
     0.00000000     0.00000000     0.00000000
     0.00000000     0.00000000     0.00000000
     0.00000000     0.00000000     0.00000000
     0.00000000     0.00000000     0.00000000
     0.00000000     0.00000000     0.00000000
     0.00000000     0.00000000     0.00000000
     0.00000000     0.00000000     0.00000000
     0.00000000     0.00000000     0.00000000
     0.00000000     0.00000000     0.00000000
     0.00000000     0.00000000     0.00000000
     0.00000000     0.00000000     0.00000000
     0.00000000     0.00000000     0.00000000
     0.00000000     0.00000000     0.00000000
     0.00000000     0.00000000     0.00000000
     0.00000000     0.00000000     0.00000000
     0.00000000     0.00000000     0.00000000
     0.00000000     0.00000000     0.00000000
     0.00000000     0.00000000     0.00000000
     0.00000000     0.00000000     0.00000000
     0.00000000     0.00000000     0.00000000
     0.00000000     0.00000000     0.00000000
     0.00000000     0.00000000     0.00000000
     0.00000000     0.00000000     0.00000000
     0.00000000     0.00000000     0.00000000
     0.00000000     0.00000000     0.00000000
     0.00000000     0.00000000     0.00000000
     0.00000000     0.00000000     0.00000000
     0.00000000     0.00000000     0.00000000
     0.00000000     0.00000000     0.00000000
     0.00000000     0.00000000     0.00000000
     0.00000000     0.00000000     0.00000000
     0.00000000     0.00000000     0.00000000
     0.00000000     0.00000000     0.00000000
     0.00000000     0.00000000     0.00000000
     0.00000000     0.00000000     0.00000000
     0.00000000     0.00000000     0.00000000
     0.00000000     0.00000000     0.00000000
     0.00000000     0.00000000     0.00000000
     0.00000000     0.00000000     0.00000000
     0.00000000     0.00000000     0.00000000
     0.00000000     0.00000000     0.00000000
     0.00000000     0.00000000     0.00000000
     0.00000000     0.00000000     0.00000000
     0.00000000     0.00000000     0.00000000
     0.00000000     0.00000000     0.00000000
     0.00000000     0.00000000     0.00000000
     0.00000000     0.00000000     0.00000000
     0.00000000     0.00000000     0.00000000
     0.00000000     0.00000000     0.00000000
     0.00000000     0.00000000     0.00000000
     0.00000000     0.00000000     0.00000000
     0.00000000     0.00000000     0.00000000
     0.00000000     0.00000000     0.00000000
     0.00000000     0.00000000     0.00000000
     0.00000000     0.00000000     0.00000000
     0.00000000     0.00000000     0.00000000
     0.00000000     0.00000000     0.00000000
     0.00000000     0.00000000     0.00000000
     0.00000000     0.00000000     0.00000000
     0.00000000     0.00000000     0.00000000
     0.00000000     0.00000000     0.00000000
     0.00000000     0.00000000     0.00000000
     0.00000000     0.00000000     0.00000000
     0.00000000     0.00000000     0.00000000
     0.00000000     0.00000000     0.00000000
     0.00000000     0.00000000     0.00000000
     0.00000000     0.00000000     0.00000000
     0.00000000     0.00000000     0.00000000
     0.00000000     0.00000000     0.00000000
     0.00000000     0.00000000     0.00000000
     0.00000000     0.00000000     0.00000000
     0.00000000     0.00000000     0.00000000
     0.00000000     0.00000000     0.00000000
     0.00000000     0.00000000     0.00000000
     0.00000000     0.00000000     0.00000000
     0.00000000     0.00000000     0.00000000
     0.00000000     0.00000000     0.00000000
     0.00000000     0.00000000     0.00000000
     0.00000000     0.00000000     0.00000000
     0.00000000     0.00000000     0.00000000
     0.00000000     0.00000000     0.00000000
     0.00000000     0.00000000     0.00000000
     0.00000000     0.00000000     0.00000000
     0.00000000     0.00000000     0.00000000
     0.00000000     0.00000000     0.00000000
     0.00000000     0.00000000     0.00000000
     0.00000000     0.00000000     0.00000000
     0.00000000     0.00000000     0.00000000
     0.00000000     0.00000000     0.00000000
     0.00000000     0.00000000     0.00000000
     0.00000000     0.00000000     0.00000000
     0.00000000     0.00000000     0.00000000
     0.00000000     0.00000000     0.00000000
     0.00000000     0.00000000     0.00000000
     0.00000000     0.00000000     0.00000000
     0.00000000     0.00000000     0.00000000
     0.00000000     0.00000000     0.00000000
     0.00000000     0.00000000     0.00000000
     0.00000000     0.00000000     0.00000000
     0.00000000     0.00000000     0.00000000
     0.00000000     0.00000000     0.00000000
     0.00000000     0.00000000     0.00000000
     0.00000000     0.00000000     0.00000000
     0.00000000     0.00000000     0.00000000
     0.00000000     0.00000000     0.00000000
     0.00000000     0.00000000     0.00000000
     0.00000000     0.00000000     0.00000000
     0.00000000     0.00000000     0.00000000
     0.00000000     0.00000000     0.00000000
     0.00000000     0.00000000     0.00000000
     0.00000000     0.00000000     0.00000000
     0.00000000     0.00000000     0.00000000
     0.00000000     0.00000000     0.00000000
     0.00000000     0.00000000     0.00000000
     0.00000000     0.00000000     0.00000000
     0.00000000     0.00000000     0.00000000
     0.00000000     0.00000000     0.00000000
     0.00000000     0.00000000     0.00000000
     0.00000000     0.00000000     0.00000000
     0.00000000     0.00000000     0.00000000
     0.00000000     0.00000000     0.00000000
     0.00000000     0.00000000     0.00000000
     0.00000000     0.00000000     0.00000000
     0.00000000     0.00000000     0.00000000
     0.00000000     0.00000000     0.00000000
     0.00000000     0.00000000     0.00000000
     0.00000000     0.00000000     0.00000000
     0.00000000     0.00000000     0.00000000
     0.00000000     0.00000000     0.00000000
     0.00000000     0.00000000     0.00000000
     0.00000000     0.00000000     0.00000000
     0.00000000     0.00000000     0.00000000
     0.00000000     0.00000000     0.00000000
     0.00000000     0.00000000     0.00000000
     0.00000000     0.00000000     0.00000000
     0.00000000     0.00000000     0.00000000
     0.00000000     0.00000000     0.00000000
     0.00000000     0.00000000     0.00000000
     0.00000000     0.00000000     0.00000000
     0.00000000     0.00000000     0.00000000
     0.00000000     0.00000000     0.00000000
     0.00000000     0.00000000     0.00000000
     0.00000000     0.00000000     0.00000000
     0.00000000     0.00000000     0.00000000
     0.00000000     0.00000000     0.00000000
     0.00000000     0.00000000     0.00000000
     0.00000000     0.00000000     0.00000000
     0.00000000     0.00000000     0.00000000
     0.00000000     0.00000000     0.00000000
     0.00000000     0.00000000     0.00000000
     0.00000000     0.00000000     0.00000000
     0.00000000     0.00000000     0.00000000
     0.00000000     0.00000000     0.00000000
     0.00000000     0.00000000     0.00000000
     0.00000000     0.00000000     0.00000000
     0.00000000     0.00000000     0.00000000
     0.00000000     0.00000000     0.00000000
     0.00000000     0.00000000     0.00000000
     0.00000000     0.00000000     0.00000000
     0.00000000     0.00000000     0.00000000
     0.00000000     0.00000000     0.00000000
     0.00000000     0.00000000     0.00000000
     0.00000000     0.00000000     0.00000000
     0.00000000     0.00000000     0.00000000
     0.00000000     0.00000000     0.00000000
     0.00000000     0.00000000     0.00000000
     0.00000000     0.00000000     0.00000000
     0.00000000     0.00000000     0.00000000
     0.00000000     0.00000000     0.00000000
     0.00000000     0.00000000     0.00000000
     0.00000000     0.00000000     0.00000000
     0.00000000     0.00000000     0.00000000
     0.00000000     0.00000000     0.00000000
     0.00000000     0.00000000     0.00000000
     0.00000000     0.00000000     0.00000000
     0.00000000     0.00000000     0.00000000
     0.00000000     0.00000000     0.00000000
     0.00000000     0.00000000     0.00000000
     0.00000000     0.00000000     0.00000000
     0.00000000     0.00000000     0.00000000
     0.00000000     0.00000000     0.00000000
     0.00000000     0.00000000     0.00000000
     0.00000000     0.00000000     0.00000000
     0.00000000     0.00000000     0.00000000
     0.00000000     0.00000000     0.00000000
     0.00000000     0.00000000     0.00000000
     0.00000000     0.00000000     0.00000000
     0.00000000     0.00000000     0.00000000
     0.00000000     0.00000000     0.00000000
     0.00000000     0.00000000     0.00000000
     0.00000000     0.00000000     0.00000000
     0.00000000     0.00000000     0.00000000
     0.00000000     0.00000000     0.00000000
     0.00000000     0.00000000     0.00000000
     0.00000000     0.00000000     0.00000000
     0.00000000     0.00000000     0.00000000
     0.00000000     0.00000000     0.00000000
     0.00000000     0.00000000     0.00000000
     0.00000000     0.00000000     0.00000000
     0.00000000     0.00000000     0.00000000
     0.00000000     0.00000000     0.00000000
     0.00000000     0.00000000     0.00000000
     0.00000000     0.00000000     0.00000000
     0.00000000     0.00000000     0.00000000
     0.00000000     0.00000000     0.00000000
     0.00000000     0.00000000     0.00000000
     0.00000000     0.00000000     0.00000000
     0.00000000     0.00000000     0.00000000
     0.00000000     0.00000000     0.00000000
     0.00000000     0.00000000     0.00000000
     0.00000000     0.00000000     0.00000000
     0.00000000     0.00000000     0.00000000
     0.00000000     0.00000000     0.00000000
     0.00000000     0.00000000     0.00000000
     0.00000000     0.00000000     0.00000000
     0.00000000     0.00000000     0.00000000
     0.00000000     0.00000000     0.00000000
     0.00000000     0.00000000     0.00000000
     0.00000000     0.00000000     0.00000000
     0.00000000     0.00000000     0.00000000
     0.00000000     0.00000000     0.00000000
     0.00000000     0.00000000     0.00000000
     0.00000000     0.00000000     0.00000000
     0.00000000     0.00000000     0.00000000
     0.00000000     0.00000000     0.00000000
     0.00000000     0.00000000     0.00000000
     0.00000000     0.00000000     0.00000000
     0.00000000     0.00000000     0.00000000
     0.00000000     0.00000000     0.00000000
     0.00000000     0.00000000     0.00000000
     0.00000000     0.00000000     0.00000000
     0.00000000     0.00000000     0.00000000
     0.00000000     0.00000000     0.00000000
     0.00000000     0.00000000     0.00000000
     0.00000000     0.00000000     0.00000000
     0.00000000     0.00000000     0.00000000
     0.00000000     0.00000000     0.00000000
     0.00000000     0.00000000     0.00000000
     0.00000000     0.00000000     0.00000000
     0.00000000     0.00000000     0.00000000
     0.00000000     0.00000000     0.00000000
     0.00000000     0.00000000     0.00000000
     0.00000000     0.00000000     0.00000000
     0.00000000     0.00000000     0.00000000
     0.00000000     0.00000000     0.00000000
     0.00000000     0.00000000     0.00000000
     0.00000000     0.00000000     0.00000000
     0.00000000     0.00000000     0.00000000
     0.00000000     0.00000000     0.00000000
     0.00000000     0.00000000     0.00000000
     0.00000000     0.00000000     0.00000000
     0.00000000     0.00000000     0.00000000
     0.00000000     0.00000000     0.00000000
     0.00000000     0.00000000     0.00000000
     0.00000000     0.00000000     0.00000000
     0.00000000     0.00000000     0.00000000
     0.00000000     0.00000000     0.00000000
     0.00000000     0.00000000     0.00000000
     0.00000000     0.00000000     0.00000000
     0.00000000     0.00000000     0.00000000
     0.00000000     0.00000000     0.00000000
SCALARS Pressures float
LOOKUP_TABLE default
   645.41033411
  1289.38626179
  1284.17635521
  1283.00545776
  1282.54013216
  1282.34324884
  1281.55361581
  1287.02492428
  1730.59108861
  1294.84234312
  2579.72720206
  2568.23420569
  2566.08782840
  2565.19366950
  2564.46346265
  2565.48725677
  2571.72804642
  2571.26694584
  1295.09138182
  2580.24777958
  2568.42393279
  2566.08379310
  2565.34274906
  2564.71880752
  2565.31078959
  2566.24710631
  2543.27916694
  1295.82314174
  2580.87344895
  2568.41198936
  2566.18739954
  2565.55773717
  2565.40296876
  2565.14278507
  2564.98437905
  2550.23380113
  1296.56861441
  2581.55959742
  2568.42401233
  2566.30807118
  2565.86822237
  2565.88149786
  2567.23906577
  2572.75306451
  2563.08959293
  1297.03570747
  2582.07287419
  2568.41281986
  2566.62744643
  2566.18006743
  2566.39319897
  2567.34890115
  2574.98193061
  2564.61040258
  1296.93099034
  2581.81375062
  2568.72540647
  2566.99993005
  2567.01067433
  2566.86120433
  2566.16172212
  2565.31875324
  2563.56142092
  1295.61543471
  2581.13647133
  2569.21793780
  2567.54130636
  2567.84785224
  2568.17426676
  2564.81455368
  2558.75199842
  2561.02224970
  1295.60506862
  2580.87107939
  2569.48887631
  2568.16993882
  2568.67021786
  2569.76926070
  2566.39530969
  2560.29861879
  2560.24133730
  1294.56271482
  2580.25252020
  2569.81662899
  2568.46740121
  2569.33093178
  2570.98254406
  2570.43282604
  2567.35855293
  2570.94146585
   648.27295256
  1290.18404794
  1284.85499859
  1284.34419101
  1284.67826235
  1285.84242195
  1286.56581974
  1286.16244030
  1719.94670741
   645.75998133
  1289.55492859
  1284.18254469
  1283.02200228
  1282.54723278
  1282.09143564
  1281.17546144
  1286.12134925
  1730.85662206
  1294.90018184
  2579.80996215
  2568.24530022
  2566.08738333
  2565.18291366
  2563.95335835
  2564.25161627
  2570.09838679
  2571.05406284
  1294.93336852
  2580.14379452
  2568.43884413
  2566.08322899
  2565.29841834
  2564.20774212
  2564.18303955
  2565.36572504
  2543.52528083
  1295.44502845
  2580.65985572
  2568.49526374
  2566.19652481
  2565.50413387
  2564.95916232
  2564.42379680
  2563.99436677
  2550.64005673
  1296.10221931
  2581.22250133
  2568.54026726
  2566.31821460
  2565.84709427
  2565.60263312
  2566.65037271
  2571.52150160
  2564.19851923
  1296.44053614
  2581.65253803
  2568.56553444
  2566.63582207
  2566.18696139
  2566.24858052
  2567.09425095
  2574.46902484
  2565.71997237
  1296.29038092
  2581.45419231
  2568.86125326
  2567.00212153
  2566.93613115
  2566.76516943
  2565.88508694
  2564.98133731
  2563.43003368
  1295.28605890
  2580.94409347
  2569.29105822
  2567.53256129
  2567.69756536
  2567.93220107
  2564.49421962
  2557.75251114
  2560.42761898
  1295.36242989
  2580.75325379
  2569.50453724
  2568.12281123
  2568.44654454
  2569.23162538
  2566.03626454
  2559.08190429
  2558.74786329
  1294.65484816
  2580.34021581
  2569.79450751
  2568.43314749
  2569.07481916
  2570.28299625
  2569.42838025
  2565.97175562
  2569.66963482
   648.27827352
  1290.27799464
  1284.86421754
  1284.33706034
  1284.57097237
  1285.47769283
  1285.76203871
  1285.21422768
  1719.28957621
   645.94258377
  1289.61042111
  1284.18956013
  1283.02519666
  1282.54520579
  1281.65145287
  1280.21979085
  1283.36002031
  1728.97589874
  1294.84778354
  2579.77760127
  2568.27615532
  2566.10805057
  2565.13853596
  2563.15590492
  2562.06285110
  2566.75439790
  2570.68122101
  1294.85923296
  2579.97260650
  2568.47000123
  2566.13093483
  2565.20771146
  2563.37980437
  2562.35440469
  2564.70087707
  2545.65853024
  1295.10168773
  2580.33360532
  2568.58010875
  2566.24714515
  2565.38056468
  2564.05699831
  2562.96349397
  2562.35586786
  2552.76716280
  1295.50509691
  2580.71337175
  2568.68165843
  2566.38577633
  2565.73877924
  2564.93990079
  2565.37614807
  2568.99834156
  2567.03540158
  1295.69725400
  2581.00863198
  2568.75901828
  2566.68838373
  2566.11695511
  2565.90620334
  2566.48876873
  2573.35199654
  2567.21389222
  1295.72876055
  2580.94792535
  2569.01012051
  2567.02740462
  2566.74009973
  2566.45653551
  2565.43766429
  2564.76673770
  2563.44146466
  1295.05798951
  2580.63793243
  2569.33133084
  2567.49181990
  2567.35837788
  2567.13306122
  2563.86239259
  2556.08170879
  2559.28825986
  1295.19787177
  2580.54756215
  2569.49509150
  2568.00692196
  2567.98161171
  2567.83560100
  2564.96240711
  2556.70460677
  2555.77412951
  1294.70854536
  2580.30777208
  2569.74786983
  2568.30284045
  2568.56142278
  2568.64774348
  2567.08620685
  2563.00580525
  2567.16813183
   648.17971417
  1290.27365623
  1284.84805122
  1284.26200541
  1284.34244849
  1284.63661672
  1284.11329824
  1283.01919293
  1717.96962357
   645.72953671
  1289.46740929
  1284.20221076
  1283.03318234
  1282.52359237
  1281.41939968
  1279.28682321
  1280.45694834
  1724.71607653
  1294.44296211
  2579.52120503
  2568.32393693
  2566.16758175
  2565.05885558
  2562.80307713
  2560.26674917
  2562.41213375
  2571.16628838
  1294.61191952
  2579.76007934
  2568.51752564
  2566.22515158
  2565.08605948
  2563.00827786
  2560.86381671
  2563.64466465
  2549.85675037
  1294.82909173
  2580.07208771
  2568.59579699
  2566.32305244
  2565.24462022
  2563.43238834
  2561.84000206
  2561.51487195
  2555.64305770
  1295.17889994
  2580.34486430
  2568.71750560
  2566.45931333
  2565.60311089
  2564.22316715
  2564.61932254
  2566.87679446
  2568.86907172
  1295.18434063
  2580.52764015
  2568.85139396
  2566.75204922
  2565.94502563
  2565.40516747
  2565.74109048
  2571.64090824
  2566.53328216
  1295.26837469
  2580.53839663
  2569.02813020
  2567.04638764
  2566.44078267
  2565.97973452
  2564.35811120
  2563.48489273
  2563.23330200
  1294.82888705
  2580.36211650
  2569.26586106
  2567.40642916
  2566.96170628
  2566.11677226
  2562.82934275
  2554.93013668
  2558.54355943
  1294.86565784
  2580.28195247
  2569.43659785
  2567.83179772
  2567.49423593
  2566.40563411
  2563.13494375
  2554.68873107
  2554.81881517
  1294.41180786
  2580.02868655
  2569.65977255
  2568.06799687
  2568.05575795
  2567.00378034
  2563.97282839
  2558.79310447
  2565.80180198
   648.04270068
  1290.11903390
  1284.79479144
  1284.12127684
  1284.11818431
  1283.72497222
  1282.38699543
  1280.13912386
  1716.49732399
   645.72933779
  1289.32817406
  1284.20884985
  1282.99582655
  1282.55061260
  1281.35339755
  1279.07084471
  1278.59901601
  1719.25884374
  1294.12154263
  2579.21073498
  2568.35870379
  2566.12640799
  2565.07361111
  2562.73654130
  2559.45448342
  2558.64951426
  2570.69040728
  1294.49359109
  2579.55210088
  2568.51858728
  2566.23812495
  2565.07437161
  2562.96216056
  2560.40655622
  2560.91134584
  2555.42642915
  1294.65840572
  2579.89476442
  2568.59731363
  2566.34303437
  2565.24401000
  2563.29700670
  2562.30944097
  2562.70670295
  2558.32173526
  1294.82404032
  2579.98535395
  2568.72574650
  2566.45871992
  2565.56357387
  2563.85293984
  2564.72547463
  2568.05237567
  2569.92094350
  1294.58935759
  2579.97279588
  2568.86105764
  2566.69859965
  2565.83570538
  2564.86312658
  2564.93243507
  2569.30057770
  2567.36296117
  1294.86955196
  2580.15289082
  2569.00328907
  2566.95806460
  2566.23576385
  2565.41883555
  2563.57560605
  2562.38639349
  2565.12420309
  1294.72480657
  2580.13938281
  2569.18813763
  2567.21749323
  2566.70280448
  2565.41386871
  2561.82153615
  2554.85345489
  2561.70181501
  1294.60466125
  2580.01351064
  2569.31613266
  2567.53729061
  2567.15493890
  2565.61009805
  2560.95853314
  2551.89603299
  2557.88467902
  1294.32757168
  2579.72634365
  2569.45533979
  2567.74570826
  2567.65614907
  2566.02182433
  2560.85753989
  2552.85512501
  2565.71195751
   647.90050177
  1289.91199140
  1284.68794712
  1283.94321687
  1283.93301923
  1283.13493606
  1280.63842076
  1276.52021080
  1714.65131823
   430.51676076
   859.47918424
   856.13577617
   855.29142329
   855.06007910
   854.22085269
   852.80687841
   851.85760117
  1286.93638229
   647.04735377
  1289.52077010
  1284.18272481
  1283.02340768
  1282.56721258
  1281.36774206
  1279.74259746
  1278.75741482
  1713.04633331
   647.35322692
  1289.74472331
  1284.24418513
  1283.10257576
  1282.56897977
  1281.48534870
  1280.36949944
  1279.72538638
  1705.79001554
   647.39754415
  1289.93315080
  1284.29235633
  1283.16430205
  1282.65468918
  1281.66393873
  1281.58052862
  1282.04552162
  1706.56357892
   647.33232519
  1289.91115877
  1284.36163823
  1283.22100392
  1282.78625913
  1281.90778929
  1282.45146033
  1285.02895343
  1713.91140079
   647.17958856
  1289.83768678
  1284.40955745
  1283.31283531
  1282.91070719
  1282.31218141
  1282.26031294
  1284.03360647
  1712.83840020
   647.50505206
  1290.01510254
  1284.48672935
  1283.43692507
  1283.10428692
  1282.56106928
  1281.85093325
  1281.34627777
  1711.57739003
   647.47556748
  1290.03934093
  1284.57151809
  1283.54097586
  1283.32583684
  1282.58508996
  1280.76764321
  1277.62851506
  1710.04002841
   647.37697961
  1289.96140622
  1284.61452723
  1283.67457303
  1283.53087905
  1282.69306992
  1279.94738680
  1274.97931379
  1706.95039829
   647.25081842
  1289.79147346
  1284.65724406
  1283.78110495
  1283.75246063
  1282.87406325
  1279.75895113
  1274.77534664
  1710.50584730
   431.86095737
   859.84085741
   856.40598488
   855.89197413
   855.90058963
   855.32013162
   853.18079297
   849.68969647
  1285.21109295
  2533.85938621
  2562.08739376
  2538.55763149
  2539.17215776
  2539.40680599
  2539.95697880
  2540.44558716
  2540.84414005
  2541.23491430
  2541.54998446
  2546.24962807
  2574.97420812
  2562.90016937
  2538.59117484
  2539.08406675
  2539.52443635
  2540.00273442
  2540.47307992
  2540.92145181
  2541.33751249
  2541.68875527
  2542.18668365
  2577.36190200
  2563.62632453
  2538.63304532
  2539.08805573
  2539.61543453
  2540.17582178
  2540.73185074
  2541.20748937
  2541.64727330
  2542.05709863
  2542.15853882
  2575.93308949
  2564.07474244
  2538.65713084
  2538.84015179
  2539.97551012
  2540.91461205
  2541.36364520
  2541.68913019
  2542.03800344
  2542.40297318
  2542.49228525
  2587.15587878
  2571.07216311
  2542.63173175
  2541.54947853
  2541.58046389
  2541.84852543
  2541.96426997
  2542.09052128
  2542.28863907
  2542.52853847
  2542.98358488
  2597.16170073
  2577.53454542
  2546.59057426
  2544.59878922
  2542.79870987
  2542.17098027
  2542.16437835
  2542.21899736
  2542.35570717
  2542.53780174
  2547.17593765
  2568.46310163
  2560.86393750
  2538.77446806
  2539.05559182
  2539.40445971
  2539.97216296
  2540.42834210
  2540.84913278
  2541.23352695
  2541.54642534
  2544.42506456
  2574.23432338
  2562.32051498
  2538.58647579
  2539.03299111
  2539.50132543
  2539.98898256
  2540.46556532
  2540.91699278
  2541.32895350
  2541.67189920
  2542.02960515
  2577.67682183
  2563.62076706
  2538.38443524
  2539.00392967
  2539.56766587
  2540.16658354
  2540.71455711
  2541.18869191
  2541.61801398
  2542.01461959
  2542.13650370
  2575.59016263
  2563.75494343
  2538.25891572
  2538.89286470
  2540.05580771
  2540.88989305
  2541.31539857
  2541.64880204
  2541.99316227
  2542.34734523
  2542.45689273
  2586.11772704
  2570.00026357
  2542.04874766
  2541.36470032
  2541.53095108
  2541.77661651
  2541.90466920
  2542.04351810
  2542.24916977
  2542.48400635
  2542.82382965
  2596.40322733
  2575.95508194
  2545.95005083
  2543.94114017
  2542.48742735
  2542.10081184
  2542.10486692
  2542.18196315
  2542.32366288
  2542.50518835
  2545.37273550
  2564.33524752
  2559.09649992
  2539.05536222
  2538.89285040
  2539.44471860
  2539.94559407
  2540.41618323
  2540.84688020
  2541.23818541
  2541.53477049
  2546.38716030
  2572.60964394
  2560.86016870
  2538.44434428
  2538.90017116
  2539.42750287
  2539.95216525
  2540.45173490
  2540.90934956
  2541.31223345
  2541.63094604
  2542.33369565
  2578.27567279
  2563.27573967
  2537.77185416
  2538.71863580
  2539.47474241
  2540.12480515
  2540.68232203
  2541.14200199
  2541.55112892
  2541.90818274
  2541.93494678
  2574.99968755
  2563.23366857
  2537.76070404
  2539.00673187
  2540.13853681
  2540.78832710
  2541.20283079
  2541.54670268
  2541.88325179
  2542.20430344
  2542.22228479
  2584.09165800
  2567.90181887
  2540.93148637
  2540.97253960
  2541.33622880
  2541.58367044
  2541.74444984
  2541.92778951
  2542.14513570
  2542.36985582
  2543.02946186
  2593.85124612
  2573.26394248
  2544.05194664
  2542.46139514
  2541.93458167
  2541.88156056
  2541.96059558
  2542.07435870
  2542.23974419
  2542.42034864
  2547.20401669
  2560.46186638
  2557.86085618
  2538.99451029
  2538.84115791
  2539.38879633
  2539.91625118
  2540.39827943
  2540.86269259
  2541.24730206
  2541.52551103
  2552.27294874
  2570.37284493
  2558.75991851
  2538.03558499
  2538.65843785
  2539.31005108
  2539.91272724
  2540.44291043
  2540.91280425
  2541.30243814
  2541.58913869
  2543.29697239
  2577.93699324
  2562.10469651
  2536.88314939
  2538.40077925
  2539.36732435
  2540.08729285
  2540.64724791
  2541.10444009
  2541.48464352
  2541.78894472
  2541.56139398
  2575.33885092
  2562.93492055
  2537.58435929
  2539.10511684
  2540.04511619
  2540.64609450
  2541.07469308
  2541.43920195
  2541.76134300
  2542.03549379
  2541.79720068
  2583.46175081
  2566.19795990
  2540.05798090
  2540.56903647
  2541.03594416
  2541.31428365
  2541.55520424
  2541.78304243
  2542.02084619
  2542.22879654
  2543.93958640
  2591.83596277
  2571.07649088
  2541.63688231
  2541.25367996
  2541.48499882
  2541.60176072
  2541.76797670
  2541.93364525
  2542.13071918
  2542.31172860
  2553.08656335
  2559.89413643
  2556.66575241
  2538.60267782
  2538.61194679
  2539.28127143
  2539.86632144
  2540.41391873
  2540.87978357
  2541.27373785
  2541.52508329
  2557.03752157
  2570.84432602
  2557.15610933
  2537.47913718
  2538.36915730
  2539.22768240
  2539.89215124
  2540.46132302
  2540.93129602
  2541.31648731
  2541.57241265
  2544.96880032
  2579.37453747
  2560.17595339
  2536.37167180
  2538.23534513
  2539.33998355
  2540.07481614
  2540.64322850
  2541.09377849
  2541.45637584
  2541.71705969
  2541.25211176
  2579.18344194
  2562.37978125
  2537.63186431
  2539.07481122
  2539.92016646
  2540.52763316
  2540.98573163
  2541.36343232
  2541.67951708
  2541.91430113
  2541.44250068
  2585.85844731
  2565.31356651
  2539.48797485
  2540.25785114
  2540.71586680
  2541.08022682
  2541.38121152
  2541.65990108
  2541.91186596
  2542.11158395
  2545.45463946
  2590.30457008
  2568.57301104
  2540.09996814
  2540.71040228
  2541.09727442
  2541.33683857
  2541.56868947
  2541.79768604
  2542.01821268
  2542.20894301
  2557.62842202
  2560.54956627
  2556.16231108
  2538.33575487
  2538.38825268
  2539.27227396
  2539.80398154
  2540.45254803
  2540.87381685
  2541.29710281
  2541.52581927
  2559.70296520
  2572.66781139
  2556.77185845
  2537.19401622
  2538.23986575
  2539.21205387
  2539.88794780
  2540.48224425
  2540.94314891
  2541.33217072
  2541.57339688
  2546.13852051
  2581.43469238
  2559.07878351
  2536.38492799
  2538.18659973
  2539.37490600
  2540.06731158
  2540.65934175
  2541.09278631
  2541.45696783
  2541.70045486
  2541.13686055
  2582.44132137
  2561.92191410
  2537.75571752
  2539.00727487
  2539.89106888
  2540.47455746
  2540.96058673
  2541.33339220
  2541.65453061
  2541.87450427
  2541.31366938
  2587.89713371
  2565.10648692
  2539.25719708
  2540.14278644
  2540.55086460
  2540.99451961
  2541.29584581
  2541.61278141
  2541.86261049
  2542.06581223
  2546.42495543
  2588.99495292
  2567.14530683
  2539.72053754
  2540.55274379
  2540.91756968
  2541.20263343
  2541.47726119
  2541.73187006
  2541.96285677
  2542.16255116
  2559.92221737
  2384.69783401
  2384.69200897
  2394.79831696
  2404.28420639
  2417.07623863
  2421.33727932
  2424.71974874
  2362.25133944
  2471.24417114
  2382.04764366
  2379.74923325
  2389.43725586
  2402.40568686
  2414.85796404
  2421.88601208
  2424.71376717
  2420.91760850
  2454.07901001
  2367.75689888
  2363.19545650
  2376.52570152
  2398.10225725
  2413.82957315
  2422.20258188
  2425.08705282
  2426.68235779
  2450.83132172
  2365.64235306
  2352.71271038
  2373.17917061
  2400.86545467
  2416.86470413
  2423.50034285
  2425.98323488
  2427.82033348
  2522.05892563
  2434.68176079
  2388.62500000
  2390.26039505
  2408.41197395
  2420.42628670
  2425.13904619
  2426.81207275
  2421.92690182
  2605.90292358
  2494.19515991
  2423.40903473
  2403.13765717
  2410.77038574
  2422.14262199
  2425.24782562
  2427.12399578
  2361.99397469
  2490.17481232
  2377.67991257
  2383.93520164
  2394.21382618
  2403.26199627
  2417.41822195
  2420.89502716
  2424.96808720
  2375.57281971
  2468.76927090
  2376.48240662
  2378.04602718
  2388.55650759
  2401.68242526
  2414.47628307
  2421.65398192
  2424.67299747
  2421.42022324
  2452.21235752
  2363.93568611
  2360.66301394
  2375.10491943
  2397.71860957
  2413.28687167
  2421.91179752
  2424.73513436
  2426.51040602
  2448.68926525
  2362.25983715
  2352.61072016
  2373.85293293
  2400.75317812
  2416.61936235
  2423.16052186
  2425.58842456
  2427.37066460
  2522.88481236
  2434.99680614
  2388.52448082
  2390.83926868
  2408.44300270
  2420.32284880
  2424.89230382
  2426.52470927
  2423.24803481
  2605.45207977
  2498.06040955
  2420.99669647
  2401.28332138
  2410.71401405
  2422.44637203
  2424.87422228
  2426.96493039
  2377.50792569
  2483.37544394
  2365.72408247
  2383.73530912
  2393.03531289
  2401.62833047
  2417.55626106
  2420.57991600
  2425.45264058
  2379.44792184
  2465.38756537
  2364.77586150
  2373.88900161
  2386.18272793
  2399.81435883
  2413.63710785
  2420.98200774
  2424.61739781
  2420.87971072
  2449.33142376
  2355.13346386
  2356.05233955
  2372.76916695
  2396.56923771
  2411.97494459
  2420.97847629
  2423.96834439
  2425.42768753
  2446.12870312
  2356.85791397
  2353.79267883
  2376.15754700
  2400.46082115
  2415.77685213
  2422.31006968
  2424.81125695
  2426.55391014
  2526.92394352
  2434.47616482
  2387.17124748
  2391.52457428
  2408.51967335
  2419.73512864
  2424.28347635
  2425.98902719
  2420.07429299
  2612.85364151
  2501.67578888
  2414.81912231
  2396.94224548
  2411.25579262
  2422.14848757
  2424.51966643
  2426.51007423
  2375.58464116
  2488.80571699
  2358.06244802
  2380.88345861
  2390.43246007
  2399.90362477
  2416.69099665
  2420.34250116
  2425.87590329
  2358.72896418
  2464.53462672
  2353.64582896
  2368.62043834
  2382.62389052
  2397.42321026
  2412.54995894
  2419.83439732
  2424.52807697
  2416.03770845
  2445.92222881
  2346.73685646
  2354.27201456
  2373.48445982
  2395.95761991
  2410.79185796
  2419.72622013
  2423.41522783
  2426.72097385
  2447.47136593
  2356.45551491
  2357.77165025
  2379.41712564
  2401.09161353
  2415.05259919
  2421.57157326
  2424.25489169
  2427.14365351
  2533.26605892
  2430.91815567
  2381.39285278
  2391.32735252
  2408.02477121
  2418.61555982
  2423.58047903
  2425.48676813
  2416.87693740
  2623.17030716
  2493.16978455
  2399.42901611
  2395.97405243
  2410.83875942
  2420.30071592
  2424.14395833
  2426.11395789
  2359.56206276
  2488.16669655
  2350.60474968
  2371.76476097
  2383.85330009
  2396.73932648
  2414.40411568
  2419.31630230
  2425.42200558
  2358.70860657
  2463.25892878
  2346.80033970
  2362.82834721
  2379.29058599
  2395.69221258
  2411.35676265
  2418.77306914
  2424.32506176
  2413.26116363
  2447.64622259
  2344.47759342
  2355.20953292
  2377.08727854
  2396.99983382
  2410.65306997
  2419.71208024
  2423.49273264
  2426.06480432
  2460.58560848
  2362.53531551
  2360.45096892
  2382.51973218
  2402.13720107
  2415.03276384
  2421.66990697
  2424.12200260
  2427.24386358
  2544.83004284
  2423.50420392
  2371.09513295
  2391.06593943
  2406.30798769
  2417.99233925
  2422.93468249
  2425.07352817
  2406.88742899
  2625.43015289
  2467.89703393
  2377.81546044
  2396.53909969
  2407.69614220
  2418.91588116
  2423.72387552
  2425.66039848
  2343.60301875
  2482.90126038
  2345.87077713
  2366.05482864
  2379.28297043
  2394.68827820
  2412.77855492
  2418.65465927
  2424.78106007
  2369.96082847
  2461.92936420
  2344.94357491
  2359.85099983
  2378.02308750
  2395.20755863
  2410.79322100
  2418.41940737
  2424.19653742
  2414.28349384
  2451.76513004
  2345.63392830
  2355.84914446
  2379.05983400
  2397.88794136
  2410.92814302
  2420.30765963
  2423.70848250
  2423.20458174
  2471.93868256
  2366.99810791
  2360.43526506
  2383.99361181
  2402.37191582
  2415.14001298
  2421.99610591
  2424.16312146
  2426.38724470
  2553.26515579
  2418.81257463
  2365.32309365
  2391.10818005
  2405.13174820
  2418.00440526
  2422.62979817
  2424.91422867
  2395.60040138
  2625.22573853
  2450.88041735
  2367.82677507
  2395.58559990
  2405.56870842
  2418.77718353
  2423.69854832
  2425.30716465
  2326.22931762
     0.00000000
     0.00000000
     0.00000000
     0.00000000
     0.00000000
     0.00000000
     0.00000000
     0.00000000
     0.00000000
     0.00000000
     0.00000000
     0.00000000
     0.00000000
     0.00000000
     0.00000000
     0.00000000
     0.00000000
     0.00000000
     0.00000000
     0.00000000
     0.00000000
     0.00000000
     0.00000000
     0.00000000
     0.00000000
     0.00000000
     0.00000000
     0.00000000
     0.00000000
     0.00000000
     0.00000000
     0.00000000
     0.00000000
     0.00000000
     0.00000000
     0.00000000
     0.00000000
     0.00000000
     0.00000000
     0.00000000
     0.00000000
     0.00000000
     0.00000000
     0.00000000
     0.00000000
     0.00000000
     0.00000000
     0.00000000
     0.00000000
     0.00000000
     0.00000000
     0.00000000
     0.00000000
     0.00000000
     0.00000000
     0.00000000
     0.00000000
     0.00000000
     0.00000000
     0.00000000
     0.00000000
     0.00000000
     0.00000000
     0.00000000
     0.00000000
     0.00000000
     0.00000000
     0.00000000
     0.00000000
     0.00000000
     0.00000000
     0.00000000
     0.00000000
     0.00000000
     0.00000000
     0.00000000
     0.00000000
     0.00000000
     0.00000000
     0.00000000
     0.00000000
     0.00000000
     0.00000000
     0.00000000
     0.00000000
     0.00000000
     0.00000000
     0.00000000
     0.00000000
     0.00000000
     0.00000000
     0.00000000
     0.00000000
     0.00000000
     0.00000000
     0.00000000
     0.00000000
     0.00000000
     0.00000000
     0.00000000
     0.00000000
     0.00000000
     0.00000000
     0.00000000
     0.00000000
     0.00000000
     0.00000000
     0.00000000
     0.00000000
     0.00000000
     0.00000000
     0.00000000
     0.00000000
     0.00000000
     0.00000000
     0.00000000
     0.00000000
     0.00000000
     0.00000000
     0.00000000
     0.00000000
     0.00000000
     0.00000000
     0.00000000
     0.00000000
     0.00000000
     0.00000000
     0.00000000
     0.00000000
     0.00000000
     0.00000000
     0.00000000
     0.00000000
     0.00000000
     0.00000000
     0.00000000
     0.00000000
     0.00000000
     0.00000000
     0.00000000
     0.00000000
     0.00000000
     0.00000000
     0.00000000
     0.00000000
     0.00000000
     0.00000000
     0.00000000
     0.00000000
     0.00000000
     0.00000000
     0.00000000
     0.00000000
     0.00000000
     0.00000000
     0.00000000
     0.00000000
     0.00000000
     0.00000000
     0.00000000
     0.00000000
     0.00000000
     0.00000000
     0.00000000
     0.00000000
     0.00000000
     0.00000000
     0.00000000
     0.00000000
     0.00000000
     0.00000000
     0.00000000
     0.00000000
     0.00000000
     0.00000000
     0.00000000
     0.00000000
     0.00000000
     0.00000000
     0.00000000
     0.00000000
     0.00000000
     0.00000000
     0.00000000
     0.00000000
     0.00000000
     0.00000000
     0.00000000
     0.00000000
     0.00000000
     0.00000000
     0.00000000
     0.00000000
     0.00000000
     0.00000000
     0.00000000
     0.00000000
     0.00000000
     0.00000000
     0.00000000
     0.00000000
     0.00000000
     0.00000000
     0.00000000
     0.00000000
     0.00000000
     0.00000000
     0.00000000
     0.00000000
     0.00000000
     0.00000000
     0.00000000
     0.00000000
     0.00000000
     0.00000000
     0.00000000
     0.00000000
     0.00000000
     0.00000000
     0.00000000
     0.00000000
     0.00000000
     0.00000000
     0.00000000
     0.00000000
     0.00000000
     0.00000000
     0.00000000
     0.00000000
     0.00000000
     0.00000000
     0.00000000
     0.00000000
     0.00000000
     0.00000000
     0.00000000
     0.00000000
     0.00000000
     0.00000000
     0.00000000
     0.00000000
     0.00000000
     0.00000000
     0.00000000
     0.00000000
     0.00000000
     0.00000000
     0.00000000
     0.00000000
     0.00000000
     0.00000000
     0.00000000
     0.00000000
     0.00000000
     0.00000000
     0.00000000
     0.00000000
     0.00000000
     0.00000000
     0.00000000
     0.00000000
     0.00000000
     0.00000000
     0.00000000
     0.00000000
     0.00000000
     0.00000000
     0.00000000
     0.00000000
     0.00000000
     0.00000000
     0.00000000
     0.00000000
     0.00000000
     0.00000000
     0.00000000
VECTORS Displacements float 
     5.33757388    -1.25528296     0.00000000
     4.90548188    -2.26808307     0.00000000
     4.25323773    -2.74100628     0.00000000
     3.48558837    -2.96503569     0.00000000
     2.68574259    -2.88814205     0.00000000
     1.87704619    -2.49347398     0.00000000
     1.11361686    -1.71753193     0.00000000
     0.60448010    -0.90428419     0.00000000
     0.00000000     0.00000000     0.00000000
     4.89886218    -0.99954684     0.01296839
     4.44780295    -1.80666318     0.00000000
     3.58633943    -2.19369930     0.00000000
     2.64376916    -2.37750669     0.00000000
     1.65126208    -2.31988341     0.00000000
     0.65107050    -1.98020583     0.00000000
    -0.30714724    -1.36496621     0.00000000
    -0.97038040    -0.66100836     0.00000000
    -1.28779953     0.02624708     0.00000000
     4.46720583    -0.76056081     0.01787841
     3.91400428    -1.33225291     0.00000000
     2.98646111    -1.64367223     0.00000000
     1.94280995    -1.79651335     0.00000000
     0.85593555    -1.74562792     0.00000000
    -0.22443493    -1.46083401     0.00000000
    -1.24880008    -0.90859749     0.00000000
    -1.83166274    -0.30169625     0.00000000
    -2.18396850     0.19547849     0.00000000
     4.06019661    -0.54303860     0.02056832
     3.43141497    -0.90161596     0.00000000
     2.47546277    -1.12803561     0.00000000
     1.41409757    -1.24701364     0.00000000
     0.33266405    -1.21111011     0.00000000
    -0.68405400    -0.98322201     0.00000000
    -1.54702878    -0.51635685     0.00000000
    -2.05289735     0.01721376     0.00000000
    -2.28572331     0.38266623     0.00000000
     3.73141262    -0.34439957     0.01916981
     3.04564339    -0.52384265     0.00000000
     2.10484096    -0.66229977     0.00000000
     1.06746276    -0.74554575     0.00000000
     0.04593738    -0.73910252     0.00000000
    -0.82504750    -0.61265984     0.00000000
    -1.37575569    -0.30975261     0.00000000
    -1.65355123     0.11060086     0.00000000
    -1.70010491     0.41420330     0.00000000
     3.58775126    -0.15453126     0.01620636
     2.86571672    -0.19367234     0.00000000
     1.93290879    -0.23303099     0.00000000
     0.89958690    -0.27425496     0.00000000
    -0.10300000    -0.31397579     0.00000000
    -0.90216944    -0.32369934     0.00000000
    -1.27471035    -0.31064269     0.00000000
    -0.88637453    -0.27959859     0.00000000
     0.00000000     0.00000000     0.00000000
     3.69384905     0.03695479     0.01998013
     2.97832155     0.14187659     0.00000000
     1.98741888     0.20913120     0.00000000
     0.87779325     0.21781816     0.00000000
    -0.24670576     0.14871572     0.00000000
    -1.26230712     0.00207492     0.00000000
    -2.03946355    -0.15492126     0.00000000
    -2.14023455    -0.15340112     0.00000000
    -1.84969554     0.36172696     0.00000000
     3.99144569     0.23407286     0.02182452
     3.31247086     0.53676479     0.00000000
     2.27796059     0.70804275     0.00000000
     1.11256704     0.77400952     0.00000000
    -0.10007550     0.69907552     0.00000000
    -1.27192611     0.48231584     0.00000000
    -2.26193611     0.16559417     0.00000000
    -2.75117867     0.10849933     0.00000000
    -2.80674195     0.42764784     0.00000000
     4.37039440     0.45298838     0.01931633
     3.75838407     0.98955274     0.00000000
     2.74992560     1.26684976     0.00000000
     1.60966417     1.38790772     0.00000000
     0.41732058     1.31721059     0.00000000
    -0.74992341     1.04335521     0.00000000
    -1.77854285     0.57286821     0.00000000
    -2.41276508     0.33027503     0.00000000
    -2.72993147     0.42551202     0.00000000
     4.77585154     0.69186763     0.01434906
     4.26861525     1.48666723     0.00000000
     3.34498666     1.85778075     0.00000000
     2.33977113     2.02520737     0.00000000
     1.29115342     1.95231804     0.00000000
     0.26750070     1.60115000     0.00000000
    -0.60785614     0.95999952     0.00000000
    -1.21826512     0.45840848     0.00000000
    -1.41160941     0.12795345     0.00000000
     5.18908002     0.94901563     0.00000000
     4.70545180     1.96229163     0.00000000
     4.02591953     2.43283467     0.00000000
     3.23840113     2.64916949     0.00000000
     2.41943660     2.55470598     0.00000000
     1.59568679     2.12692117     0.00000000
     0.82230892     1.28362038     0.00000000
     0.42321139     0.57110995     0.00000000
     0.00000000     0.00000000     0.00000000
     5.33307202    -1.24025390     0.37912552
     4.90057997    -2.23601722     0.57693229
     4.25161380    -2.69864038     0.65172009
     3.48666929    -2.91844834     0.69540265
     2.69059662    -2.84313838     0.69581212
     1.88607485    -2.45670566     0.65464143
     1.12864078    -1.69494748     0.56585306
     0.62431487    -0.89488041     0.42786364
     0.00000000     0.00000000     0.00000000
     4.92315283    -0.99524369     0.42188609
     4.47317668    -1.79500358     0.65397995
     3.62688847    -2.17182388     0.75482426
     2.70195147    -2.35190089     0.81729763
     1.73063507    -2.29300418     0.83340773
     0.75861129    -1.95740558     0.80915397
    -0.15932790    -1.34501374     0.72502475
    -0.80326149    -0.65710531     0.56968778
    -1.16194063     0.02141077     0.09630069
     4.52339233    -0.76293753     0.45567405
     3.97388335    -1.33620462     0.70498502
     3.06165808    -1.63816218     0.82551308
     2.03948369    -1.78601503     0.90845026
     0.98216959    -1.73401388     0.93571707
    -0.05644854    -1.45276976     0.92420396
    -1.02208038    -0.90592131     0.82843785
    -1.57941006    -0.32005557     0.67383724
    -1.99048911     0.17066519     0.19792607
     4.15537269    -0.54817514     0.47545774
     3.52590033    -0.91250655     0.73440704
     2.57843611    -1.13070416     0.87087532
     1.53471596    -1.24496937     0.96237182
     0.47923440    -1.20895215     0.99278097
    -0.50094049    -0.98695739     0.97383472
    -1.31404116    -0.52995912     0.88308132
    -1.79154661    -0.02113128     0.71280350
    -2.08708457     0.34226939     0.21282367
     3.85622521    -0.34496927     0.48403138
     3.17091807    -0.53208412     0.74012538
     2.22956766    -0.66523709     0.88682901
     1.20119702    -0.74496390     0.98178685
     0.19492547    -0.73926376     1.00637151
    -0.65878762    -0.61914162     0.96151592
    -1.19413159    -0.32673205     0.85817846
    -1.45415902     0.07143195     0.69266998
    -1.55025036     0.37527028     0.14974146
     3.70544689    -0.15424533     0.48468430
     3.00458343    -0.19240090     0.73034031
     2.06541431    -0.23024928     0.88104563
     1.03657358    -0.27071654     0.97700794
     0.04253486    -0.31073053     0.99476626
    -0.75449694    -0.32415214     0.93564239
    -1.14453594    -0.31304411     0.76154375
    -0.81247673    -0.27775126     0.44388272
     0.00000000     0.00000000     0.00000000
     3.82003163     0.03761380     0.48395910
     3.10524511     0.15298387     0.74232989
     2.11493417     0.21760543     0.89087932
     1.01600735     0.22449953     0.98915186
    -0.09162969     0.15515783     1.01775870
    -1.08916062     0.01008156     0.99005711
    -1.84929309    -0.15247315     0.86516940
    -1.97949706    -0.15863467     0.64782657
    -1.75216138     0.34271163     0.07045748
     4.08794327     0.23964297     0.47549946
     3.40937035     0.55031505     0.73857302
     2.38627667     0.71583899     0.87730333
     1.24167228     0.77871539     0.97088486
     0.05625350     0.70342698     1.00328715
    -1.08263196     0.48942062     0.97894842
    -2.03750462     0.16646642     0.87263936
    -2.52529413     0.09285546     0.71339365
    -2.63646234     0.39817600     0.23127463
     4.42769677     0.45550395     0.45614275
     3.82094965     0.99552842     0.70970148
     2.83155586     1.26510340     0.83182262
     1.71617718     1.38273029     0.91475846
     0.55361580     1.31162137     0.93692942
    -0.58023407     1.04101728     0.90927151
    -1.57478966     0.56877785     0.79824971
    -2.19761342     0.31392721     0.66628926
    -2.55348692     0.39638698     0.26620043
     4.80141273     0.68778620     0.42249722
     4.29637495     1.47588569     0.65796554
     3.39070749     1.83759834     0.75943799
     2.40557100     2.00268135     0.82021567
     1.37793547     1.92997004     0.82955983
     0.37623112     1.58477641     0.78865011
    -0.47940266     0.95173144     0.67378608
    -1.08725196     0.45338922     0.51192399
    -1.30591394     0.11504018     0.08361297
     5.18647348     0.93407180     0.38017013
     4.70284969     1.93028531     0.57859300
     4.02721270     2.39084477     0.65378627
     3.24202682     2.60343951     0.69657953
     2.42742133     2.51173703     0.69439876
     1.60694158     2.09408021     0.64894666
     0.84031445     1.26836350     0.54871021
     0.44126296     0.56833169     0.39790306
     0.00000000     0.00000000     0.00000000
     5.32087262    -1.19538615     0.75006001
     4.88694754    -2.14182067     1.14476602
     4.24673160    -2.57479331     1.29529932
     3.48967859    -2.78237296     1.38334552
     2.70429491    -2.71146797     1.38371379
     1.91194601    -2.34888368     1.30119227
     1.17066094    -1.62829793     1.11900111
     0.67996214    -0.86682387     0.84562332
     0.00000000     0.00000000     0.00000000
     4.97636175    -0.97039580     0.83911068
     4.53196869    -1.73666247     1.30023165
     3.71488753    -2.08261336     1.49814034
     2.83156856    -2.25068899     1.61851797
     1.91187818    -2.19167894     1.64300368
     1.00628275    -1.87133625     1.58343515
     0.18271603    -1.27871167     1.39590474
    -0.41843136    -0.63773865     1.08120490
    -0.87475107     0.01201593     0.12745207
     4.65126589    -0.75311255     0.90659414
     4.11926134    -1.30973755     1.41154387
     3.24176478    -1.58392022     1.64471137
     2.27474106    -1.71862618     1.79994553
     1.29241546    -1.66587504     1.84013657
     0.35593229    -1.39892526     1.79672228
    -0.46926357    -0.87716623     1.58207502
    -0.97085677    -0.34801664     1.24619254
    -1.50758841     0.11498836     0.27412306
     4.35782803    -0.54312744     0.95223875
     3.75430957    -0.90623911     1.48253880
     2.84040668    -1.10264664     1.74361373
     1.84888220    -1.20555296     1.91329703
     0.86401361    -1.17086435     1.95829849
    -0.02439176    -0.96747383     1.89870550
    -0.71698719    -0.54342596     1.69126512
    -1.13890080    -0.10109620     1.31629379
    -1.56984457     0.24051321     0.28195841
     4.11305992    -0.34361792     0.97377226
     3.47452279    -0.53282854     1.50712640
     2.55478711    -0.65185095     1.78674290
     1.56407688    -0.72314901     1.96189700
     0.60481894    -0.71949960     1.99762682
    -0.20347790    -0.61666175     1.89630917
    -0.70365241    -0.35280915     1.66940575
    -0.94122850    -0.01279314     1.30609718
    -1.15803760     0.26808821     0.17965970
     3.99176441    -0.15387098     0.96750552
     3.34137222    -0.18793469     1.49741649
     2.41586989    -0.22137996     1.78241963
     1.41620216    -0.25836281     1.95949920
     0.45468105    -0.29712376     1.98505747
    -0.33188839    -0.31692230     1.86318423
    -0.76278303    -0.30499332     1.52885547
    -0.59125883    -0.26035815     0.92251235
     0.00000000     0.00000000     0.00000000
     4.07976636     0.03688034     0.97353036
     3.41448728     0.16239204     1.51122718
     2.45174188     0.22103361     1.79402973
     1.39890152     0.22620546     1.97495995
     0.34890706     0.15951965     2.01811820
    -0.59043535     0.02434877     1.94613664
    -1.29320329    -0.14279335     1.68948151
    -1.49263404    -0.17269498     1.26320854
    -1.46574362     0.28805503     0.10178078
     4.29437531     0.23534928     0.95222501
     3.64665337     0.55112040     1.48988553
     2.66713821     0.70142553     1.75499580
     1.58640350     0.75820874     1.92866876
     0.48162547     0.68484112     1.97811100
    -0.56431137     0.48404001     1.91234826
    -1.41793289     0.15763077     1.68224457
    -1.89772417     0.04635368     1.34938002
    -2.14991168     0.31040352     0.36022425
     4.55986154     0.44619143     0.90724347
     3.97604533     0.97360518     1.41974059
     3.03143589     1.21984553     1.65580950
     1.98164588     1.32822682     1.81163356
     0.89845500     1.25879918     1.84466201
    -0.14724803     1.00222725     1.77824518
    -1.04994247     0.53953736     1.54012087
    -1.64449914     0.26539053     1.26236278
    -2.07742259     0.31331510     0.42234501
     4.85926536     0.66336802     0.84030277
     4.36344229     1.41913798     1.30704658
     3.49381272     1.75250423     1.50636141
     2.55629369     1.90829242     1.62408210
     1.58207548     1.83977734     1.63779352
     0.63405571     1.51458180     1.55231850
    -0.17196105     0.91414740     1.31588240
    -0.78327169     0.44160198     1.00529237
    -1.06365659     0.09280750     0.12306823
     5.17971637     0.88933288     0.75160924
     4.69658138     1.83641113     1.14823273
     4.03020505     2.26789841     1.29899195
     3.25380503     2.46982779     1.38567772
     2.44944058     2.38568868     1.38091978
     1.64119180     1.99718074     1.28939677
     0.89033217     1.22252889     1.08402626
     0.49411044     0.55905983     0.78724151
     0.00000000     0.00000000     0.00000000
     5.30386110    -1.12238309     1.10762175
     4.86678967    -1.99123194     1.69263272
     4.23840631    -2.37875071     1.92131823
     3.49374187    -2.56725945     2.05399066
     2.72476408    -2.50282869     2.05401773
     1.95068659    -2.17696816     1.92994042
     1.23247704    -1.52082829     1.64832707
     0.76186159    -0.82158022     1.24434450
     0.00000000     0.00000000     0.00000000
     5.05362633    -0.92404186     1.24688904
     4.61817576    -1.63246198     1.93456282
     3.84145037    -1.93205095     2.21889844
     3.01749627    -2.08585949     2.39191579
     2.16406648    -2.02528020     2.41221382
     1.34143256    -1.74064852     2.30427476
     0.62088419    -1.18948597     1.99106275
     0.05103487    -0.60806899     1.53222218
    -0.51089657    -0.00050173     0.07832506
     4.81898657    -0.72347084     1.35728660
     4.32303684    -1.24704128     2.11760812
     3.50180917    -1.48153430     2.44824283
     2.61305496    -1.60134477     2.66072605
     1.72524225    -1.54581564     2.69379764
     0.90547275    -1.31282851     2.59123160
     0.21527938    -0.84067198     2.23763566
    -0.24629672    -0.37452228     1.71666040
    -0.88488484     0.04417105     0.18998199
     4.59803799    -0.52856401     1.43566775
     4.06410427    -0.87264609     2.24017795
     3.21622364    -1.03947878     2.61155780
     2.30393752    -1.12856249     2.84104430
     1.41052382    -1.09147872     2.87849869
     0.62550162    -0.91996653     2.75118053
     0.03634406    -0.55084271     2.40010705
    -0.35691853    -0.18124153     1.81567020
    -0.91758162     0.09694797     0.17299469
     4.42860633    -0.33874595     1.47116730
     3.87012331    -0.51834656     2.29867490
     3.01397908    -0.61630504     2.69520454
     2.09381614    -0.67578059     2.93294450
     1.20539360    -0.66879561     2.96119585
     0.45551468    -0.58704991     2.79092270
    -0.03061300    -0.36118216     2.41843517
    -0.30053974    -0.08529224     1.84966016
    -0.68777534     0.12048291     0.07668494
     4.34787420    -0.15344486     1.47174730
     3.77577976    -0.18015189     2.29946523
     2.91000884    -0.20550240     2.70378400
     1.97787991    -0.23458355     2.94404182
     1.08079383    -0.26550368     2.96327894
     0.32883151    -0.28699898     2.77538420
    -0.15115418    -0.26853274     2.30515444
    -0.21846186    -0.20991524     1.46702610
     0.00000000     0.00000000     0.00000000
     4.39854110     0.03278791     1.47131756
     3.81844848     0.16274680     2.30355575
     2.92999100     0.21499109     2.70365391
     1.96391886     0.22330828     2.94748569
     1.00913231     0.16474769     2.98373498
     0.16438581     0.05130388     2.84307463
    -0.46438599    -0.10584990     2.44499265
    -0.76018569    -0.15754179     1.83170573
    -1.02712223     0.22268550     0.06342125
     4.53968548     0.22167747     1.43609598
     3.97015820     0.52920407     2.24890959
     3.07292894     0.66163316     2.62451769
     2.09466747     0.71525182     2.85897435
     1.10854008     0.64707770     2.90129260
     0.19574030     0.47491936     2.77010494
    -0.54181546     0.17036793     2.39467868
    -1.01735844     0.01756796     1.88786057
    -1.43975468     0.21030525     0.31101876
     4.73410011     0.41724430     1.35845919
     4.19494973     0.91835544     2.12719568
     3.32246052     1.13203473     2.46125917
     2.37039706     1.23264223     2.67482456
     1.40033310     1.16498603     2.70137545
     0.47820377     0.94317368     2.57854705
    -0.31630975     0.51455408     2.19837407
    -0.88520564     0.21524931     1.77197195
    -1.38355002     0.19703739     0.38082512
     4.94416344     0.61764864     1.24851409
     4.46344489     1.31794979     1.94304176
     3.64386419     1.60823593     2.22862409
     2.77678596     1.75408045     2.39937001
     1.87541362     1.68871120     2.40753790
     1.00761297     1.40581368     2.27301670
     0.27044447     0.85866389     1.90738948
    -0.35726871     0.41286694     1.48196335
    -0.73400087     0.06480004     0.09999727
     5.17173657     0.81652912     1.11005624
     4.68813991     1.68625110     1.69697746
     4.03562378     2.07315591     1.92676351
     3.27156504     2.25818679     2.05685657
     2.48516885     2.18506190     2.04988038
     1.69394599     1.84108686     1.91210747
     0.96817097     1.14587488     1.59413249
     0.57445113     0.54197709     1.16288889
     0.00000000     0.00000000     0.00000000
     5.28572519    -1.02465475     1.44276571
     4.84190096    -1.79302365     2.20950916
     4.22625135    -2.12438498     2.51721543
     3.49772806    -2.28866229     2.69441619
     2.74882955    -2.23195991     2.69276039
     1.99754563    -1.95132017     2.52963213
     1.30281690    -1.37752569     2.14455672
     0.85792731    -0.76157473     1.61564776
     0.00000000     0.00000000     0.00000000
     5.14290587    -0.85527564     1.64175929
     4.71228990    -1.48544204     2.54389236
     3.99389748    -1.73722176     2.90477400
     3.24724524    -1.86638276     3.12705328
     2.46396239    -1.81842260     3.13511911
     1.69950303    -1.56530506     2.96639014
     1.07879372    -1.11330726     2.51645690
     0.49848000    -0.59388981     1.96261476
    -0.16897586     0.00720272    -0.00960782
     4.99381399    -0.68013834     1.80239371
     4.55742953    -1.15187002     2.80791615
     3.80890922    -1.34520299     3.22176996
     3.02838506    -1.43754641     3.47983249
     2.23661563    -1.39661939     3.49391637
     1.49532946    -1.18431581     3.31184511
     0.90607348    -0.83357955     2.81087533
     0.38262425    -0.42272959     2.18419875
    -0.29889589     0.01036533     0.01267426
     4.86448984    -0.50464707     1.91538923
     4.41830836    -0.81802620     2.99545655
     3.65420068    -0.95165408     3.45656431
     2.85931559    -1.01369375     3.73306323
     2.06417331    -0.98620423     3.75033430
     1.34644246    -0.82841795     3.53494460
     0.83084871    -0.56782035     3.02423332
     0.32866397    -0.26852875     2.32183359
    -0.31601578    -0.00453706    -0.01397511
     4.77239678    -0.32793383     1.97906039
     4.31532089    -0.49079736     3.10104871
     3.54275800    -0.56389033     3.59259578
     2.73906873    -0.60152746     3.87879063
     1.94346872    -0.59212058     3.89260102
     1.23413072    -0.51210607     3.64125749
     0.77232633    -0.35757715     3.10260677
     0.35209955    -0.13141619     2.39852261
    -0.28675483    -0.03857190    -0.05280056
     4.72654581    -0.15305220     1.99236222
     4.26204281    -0.16847394     3.12509866
     3.48046117    -0.18256390     3.62560995
     2.66987452    -0.19716132     3.91505730
     1.86889105    -0.21485411     3.92274221
     1.16229318    -0.21994173     3.65805458
     0.68164322    -0.20728148     3.07300062
     0.27961750    -0.14065544     2.12332494
     0.00000000     0.00000000     0.00000000
     4.74568922     0.02280487     1.97944873
     4.27383913     0.15642742     3.10527219
     3.48231578     0.20570005     3.59884969
     2.65465275     0.21700999     3.88877939
     1.82593466     0.17923995     3.90563692
     1.07576616     0.09538238     3.66848866
     0.55937337    -0.02620165     3.10856173
     0.10407333    -0.11356186     2.39046732
    -0.54129613     0.21871284    -0.00313068
     4.81205434     0.19868152     1.91642302
     4.34028112     0.49147316     3.00267661
     3.54767209     0.60695016     3.46695709
     2.71633345     0.65213718     3.74551864
     1.87550340     0.60716098     3.76459147
     1.08650832     0.46259360     3.54132890
     0.50159785     0.22883636     2.99880872
    -0.08368934     0.07758121     2.40756634
    -0.67766372     0.11195874     0.12059056
     4.91698991     0.37462386     1.80409794
     4.44782697     0.83347638     2.81656225
     3.66647922     1.01687819     3.23235130
     2.85002108     1.09945681     3.49113878
     2.01047305     1.05470108     3.49825992
     1.20803234     0.85533669     3.29868954
     0.56279155     0.53252142     2.76103636
    -0.07512394     0.25856417     2.25744961
    -0.65055030     0.05924458     0.16666089
     5.04358781     0.54954680     1.64390052
     4.57469742     1.17508103     2.55179243
     3.82653504     1.42286449     2.91385359
     3.05077884     1.54838468     3.13384976
     2.23669168     1.50116865     3.13051097
     1.43613074     1.25201386     2.93789297
     0.81474198     0.81207740     2.43299115
     0.16107358     0.42090149     1.94585376
    -0.37111468    -0.00206827     0.04331247
     5.16580661     0.71914067     1.44520641
     4.67994352     1.48834473     2.21531102
     4.04131452     1.82032761     2.52295124
     3.29611347     1.98338395     2.69792096
     2.52928075     1.92298803     2.68730693
     1.76310062     1.63353301     2.50534746
     1.06018137     1.03884334     2.07417441
     0.67459317     0.51616079     1.51558184
     0.00000000     0.00000000     0.00000000
     5.26580555    -0.90681119     1.75002979
     4.81138943    -1.55760816     2.68258869
     4.21034253    -1.82794072     3.06685572
     3.50113749    -1.96477485     3.28752896
     2.77222715    -1.91594977     3.28403467
     2.04706904    -1.68519559     3.08257998
     1.37562683    -1.20273454     2.60174037
     0.95851092    -0.69066374     1.96038151
     0.00000000     0.00000000     0.00000000
     5.22240850    -0.76986361     2.01449447
     4.77731465    -1.29731774     3.09816576
     4.19341090    -1.50480031     3.55265580
     3.50048417    -1.61315105     3.81361245
     2.79382249    -1.57258170     3.80683014
     2.09079491    -1.39088653     3.57339396
     1.44483844    -1.00409981     3.00013091
     1.06471279    -0.59823898     2.28459621
     0.00000000     0.00000000     0.00000000
     5.18164466    -0.62408255     2.23067027
     4.74255727    -1.02012830     3.44169080
     4.17330336    -1.16867696     3.95486261
     3.49819854    -1.24820956     4.25259161
     2.80588871    -1.21572615     4.24012529
     2.12835798    -1.08176262     3.98039572
     1.49531666    -0.78566849     3.33046221
     1.15656765    -0.49046180     2.53357027
     0.00000000     0.00000000     0.00000000
     5.14930888    -0.47006718     2.39235724
     4.71115588    -0.73474670     3.69668191
     4.15359523    -0.82773657     4.25936128
     3.48898900    -0.88033516     4.58087438
     2.81240366    -0.85497172     4.56798201
     2.14520081    -0.76623347     4.28119708
     1.53941760    -0.55776053     3.57377349
     1.21914488    -0.36692319     2.70047655
     0.00000000     0.00000000     0.00000000
     5.12547978    -0.31272252     2.49106446
     4.68643620    -0.44348364     3.85623022
     4.13271313    -0.48890198     4.44714007
     3.47737007    -0.51193458     4.78699169
     2.80533594    -0.49738595     4.76884594
     2.14971548    -0.44738374     4.46851822
     1.54177730    -0.32844385     3.70589143
     1.26308066    -0.23304649     2.76098252
     0.00000000     0.00000000     0.00000000
     5.11022597    -0.15186129     2.52527675
     4.66716209    -0.15245570     3.90983119
     4.11476430    -0.14930191     4.51279995
     3.45864761    -0.14758602     4.85530256
     2.79158422    -0.13978401     4.83861386
     2.13148811    -0.13109891     4.52252967
     1.54356131    -0.10186045     3.75804792
     1.20566126    -0.10145641     2.64016537
     0.00000000     0.00000000     0.00000000
     5.10232777     0.00701753     2.49237383
     4.65490205     0.14108927     3.85729488
     4.09738050     0.18716225     4.44972621
     3.43784079     0.22022864     4.78688308
     2.76351520     0.21223411     4.76587242
     2.10421408     0.19001458     4.45777440
     1.49653890     0.11165778     3.67336079
     1.20397682     0.04890866     2.76700564
     0.00000000     0.00000000     0.00000000
     5.10334812     0.16595782     2.39303948
     4.64972886     0.43017322     3.70142303
     4.08199471     0.52820507     4.26091210
     3.41365636     0.58483614     4.58512662
     2.72499832     0.57093849     4.55681840
     2.06109110     0.50044189     4.27005258
     1.42975258     0.33174245     3.49132913
     1.16700393     0.18828962     2.72325227
     0.00000000     0.00000000     0.00000000
     5.11436424     0.31868818     2.23346204
     4.65121443     0.71696956     3.44525961
     4.07023947     0.86699979     3.96078065
     3.38373773     0.95280228     4.25402537
     2.68278768     0.92632294     4.23189272
     1.99475010     0.80959516     3.95672774
     1.35256836     0.53832637     3.23747727
     1.05486452     0.31697569     2.53833769
     0.00000000     0.00000000     0.00000000
     5.13524715     0.46498846     2.01657668
     4.65985543     0.99300769     3.10464709
     4.05835378     1.20341473     3.55720458
     3.35447865     1.31435172     3.81794887
     2.63166305     1.27889749     3.79688157
     1.92104300     1.10603270     3.54711366
     1.26061642     0.73271072     2.90646910
     0.93265567     0.41627621     2.25195863
     0.00000000     0.00000000     0.00000000
     5.16106590     0.60144922     1.75290617
     4.66927816     1.25352667     2.68769535
     4.04952052     1.52498788     3.07380623
     3.32325817     1.66325208     3.29024129
     2.58108511     1.61533086     3.27725724
     1.83902375     1.38453777     3.05492678
     1.16404003     0.90183229     2.51733394
     0.78563354     0.48211003     1.86601779
     0.00000000     0.00000000     0.00000000
     0.00000000     0.00000000     0.00000000
     0.00000000     0.00000000     0.00000000
     0.00000000     0.00000000     0.00000000
     0.00000000     0.00000000     0.00000000
     0.00000000     0.00000000     0.00000000
     0.00000000     0.00000000     0.00000000
     0.00000000     0.00000000     0.00000000
     0.00000000     0.00000000     0.00000000
     0.00000000     0.00000000     0.00000000
     0.00000000     0.00000000     0.00000000
     0.00000000     0.00000000     0.00000000
    -0.77490000     0.13625139     0.00000000
    -1.17901515    -0.24079801     0.00000000
    -1.21042274    -0.03782211     0.00000000
    -1.11045602    -0.03957787     0.00000000
    -0.97227415    -0.02965885     0.00000000
    -0.81830010    -0.00748244     0.00000000
    -0.66055026     0.02345909     0.00000000
    -0.50291812     0.05868276     0.00000000
    -0.34681181     0.09281926     0.00000000
    -0.19270213     0.12355685     0.00000000
     0.00000000     0.00000000     0.00000000
    -2.37455310     0.09944423     0.00000000
    -2.42882425    -0.30868995     0.00000000
    -2.34161662    -0.30746798     0.00000000
    -2.06213565    -0.32303067     0.00000000
    -1.73518908    -0.29960089     0.00000000
    -1.40651612    -0.24285670     0.00000000
    -1.08611662    -0.17374347     0.00000000
    -0.77728440    -0.10011467     0.00000000
    -0.48333308    -0.02569779     0.00000000
    -0.21173945     0.02682080     0.00000000
     0.00000000     0.00000000     0.00000000
    -2.84092613     0.33699033     0.00000000
    -2.69551635    -0.11067486     0.00000000
    -2.42469533    -0.51382420     0.00000000
    -2.06540470    -0.58777062     0.00000000
    -1.71055690    -0.54389865     0.00000000
    -1.36698579    -0.47317520     0.00000000
    -1.03987462    -0.39199858     0.00000000
    -0.72828045    -0.30887249     0.00000000
    -0.43304951    -0.22805542     0.00000000
    -0.17003736    -0.13551185     0.00000000
     0.00000000     0.00000000     0.00000000
    -1.43612524     0.28341982     0.00000000
    -1.65223251     0.11854490     0.00000000
    -1.24783131    -0.45289733     0.00000000
    -1.03861966    -0.45262446     0.00000000
    -0.85741992    -0.42963515     0.00000000
    -0.69332770    -0.38829186     0.00000000
    -0.53813864    -0.34489767     0.00000000
    -0.38806674    -0.30139004     0.00000000
    -0.24238153    -0.25555941     0.00000000
    -0.10015661    -0.20615079     0.00000000
     0.00000000     0.00000000     0.00000000
     0.00000000     0.00000000     0.00000000
     0.00000000     0.00000000     0.00000000
     0.00000000     0.00000000     0.00000000
     0.00000000     0.00000000     0.00000000
     0.00000000     0.00000000     0.00000000
     0.00000000     0.00000000     0.00000000
     0.00000000     0.00000000     0.00000000
     0.00000000     0.00000000     0.00000000
     0.00000000     0.00000000     0.00000000
     0.00000000     0.00000000     0.00000000
     0.00000000     0.00000000     0.00000000
     0.00000000     0.00000000     0.00000000
     0.00000000     0.00000000     0.00000000
     0.00000000     0.00000000     0.00000000
     0.00000000     0.00000000     0.00000000
     0.00000000     0.00000000     0.00000000
     0.00000000     0.00000000     0.00000000
     0.00000000     0.00000000     0.00000000
     0.00000000     0.00000000     0.00000000
     0.00000000     0.00000000     0.00000000
     0.00000000     0.00000000     0.00000000
     0.00000000     0.00000000     0.00000000
    -0.71703164     0.12700442     0.10242857
    -1.11800016    -0.22975414     0.14422171
    -1.13540457    -0.02860785    -0.00293186
    -1.03555850    -0.03306233    -0.04575460
    -0.90599014    -0.02491873    -0.05970510
    -0.76374204    -0.00543815    -0.06241947
    -0.61873181     0.02235332    -0.06158465
    -0.47353870     0.05459414    -0.05966571
    -0.32923690     0.08623639    -0.05587500
    -0.18528063     0.11636939    -0.04572229
     0.00000000     0.00000000     0.00000000
    -2.22183841     0.08690237     0.24540402
    -2.31317398    -0.29711364     0.14406294
    -2.22182540    -0.29056021    -0.03219972
    -1.94836018    -0.30317833    -0.10929434
    -1.63674893    -0.28107082    -0.13693797
    -1.32781569    -0.22829714    -0.13983747
    -1.02848688    -0.16416357    -0.13431285
    -0.73983722    -0.09544974    -0.12488496
    -0.46371540    -0.02526435    -0.10761133
    -0.20534828     0.02515558    -0.07156654
     0.00000000     0.00000000     0.00000000
    -2.65746303     0.31435692     0.24669916
    -2.56761914    -0.10519136     0.11695911
    -2.29874377    -0.49150863    -0.04307329
    -1.94935129    -0.55853138    -0.12454880
    -1.61199249    -0.51540027    -0.14784665
    -1.28959714    -0.44846666    -0.14665527
    -0.98433940    -0.37233503    -0.13821546
    -0.69324554    -0.29447632    -0.12706125
    -0.41578916    -0.21866032    -0.10889338
    -0.16534293    -0.13084225    -0.07235947
     0.00000000     0.00000000     0.00000000
    -1.31535996     0.25870838     0.10441132
    -1.55465349     0.11224297     0.08966006
    -1.15821878    -0.42807732    -0.05080106
    -0.96125279    -0.42307731    -0.07046550
    -0.79437477    -0.40193316    -0.06971906
    -0.64458297    -0.36375091    -0.06426152
    -0.50303323    -0.32376983    -0.05965723
    -0.36534934    -0.28368811    -0.05633296
    -0.23086751    -0.24139397    -0.05239947
    -0.09744299    -0.19635833    -0.04313154
     0.00000000     0.00000000     0.00000000
     0.00000000     0.00000000     0.00000000
     0.00000000     0.00000000     0.00000000
     0.00000000     0.00000000     0.00000000
     0.00000000     0.00000000     0.00000000
     0.00000000     0.00000000     0.00000000
     0.00000000     0.00000000     0.00000000
     0.00000000     0.00000000     0.00000000
     0.00000000     0.00000000     0.00000000
     0.00000000     0.00000000     0.00000000
     0.00000000     0.00000000     0.00000000
     0.00000000     0.00000000     0.00000000
     0.00000000     0.00000000     0.00000000
     0.00000000     0.00000000     0.00000000
     0.00000000     0.00000000     0.00000000
     0.00000000     0.00000000     0.00000000
     0.00000000     0.00000000     0.00000000
     0.00000000     0.00000000     0.00000000
     0.00000000     0.00000000     0.00000000
     0.00000000     0.00000000     0.00000000
     0.00000000     0.00000000     0.00000000
     0.00000000     0.00000000     0.00000000
     0.00000000     0.00000000     0.00000000
    -0.56879428     0.11091426     0.16052105
    -0.95635118    -0.19164457     0.24361637
    -0.93347172    -0.00377319    -0.01599719
    -0.83882159    -0.01547163    -0.08059067
    -0.73513784    -0.01242989    -0.09904452
    -0.62530969    -0.00161330    -0.10145035
    -0.51329479     0.01840271    -0.09976382
    -0.40035777     0.04340086    -0.09705447
    -0.28557163     0.06810095    -0.09192623
    -0.16756402     0.09639967    -0.07739209
     0.00000000     0.00000000     0.00000000
    -1.78220549     0.06033337     0.39997290
    -1.97438295    -0.25524028     0.26067802
    -1.86577627    -0.23805287    -0.06910681
    -1.61383846    -0.24419119    -0.19389380
    -1.35011636    -0.22777520    -0.23180249
    -1.10054887    -0.18792667    -0.23196537
    -0.86220779    -0.13812539    -0.22168667
    -0.63164790    -0.08332747    -0.20716435
    -0.40639712    -0.02535947    -0.18126069
    -0.18684399     0.01866297    -0.12410685
     0.00000000     0.00000000     0.00000000
    -2.12658140     0.24629313     0.39848926
    -2.19037194    -0.08837721     0.21797992
    -1.92478047    -0.42027498    -0.08853798
    -1.60859838    -0.46917694    -0.22083362
    -1.32589142    -0.42959165    -0.25024460
    -1.06739163    -0.37439921    -0.24326149
    -0.82533682    -0.31319914    -0.22814801
    -0.59300202    -0.25096509    -0.21084624
    -0.36626699    -0.18949299    -0.18352577
    -0.15271489    -0.11552055    -0.12559017
     0.00000000     0.00000000     0.00000000
    -1.00836837     0.19885905     0.14579876
    -1.30048860     0.09064828     0.15319343
    -0.92650638    -0.35893474    -0.09273007
    -0.76384837    -0.34645703    -0.11848109
    -0.63583437    -0.33155600    -0.11341785
    -0.52448345    -0.30099865    -0.10322584
    -0.41702220    -0.27000690    -0.09599755
    -0.31045998    -0.23905448    -0.09130404
    -0.20382376    -0.20488185    -0.08607760
    -0.09259324    -0.17068194    -0.07299476
     0.00000000     0.00000000     0.00000000
     0.00000000     0.00000000     0.00000000
     0.00000000     0.00000000     0.00000000
     0.00000000     0.00000000     0.00000000
     0.00000000     0.00000000     0.00000000
     0.00000000     0.00000000     0.00000000
     0.00000000     0.00000000     0.00000000
     0.00000000     0.00000000     0.00000000
     0.00000000     0.00000000     0.00000000
     0.00000000     0.00000000     0.00000000
     0.00000000     0.00000000     0.00000000
     0.00000000     0.00000000     0.00000000
     0.00000000     0.00000000     0.00000000
     0.00000000     0.00000000     0.00000000
     0.00000000     0.00000000     0.00000000
     0.00000000     0.00000000     0.00000000
     0.00000000     0.00000000     0.00000000
     0.00000000     0.00000000     0.00000000
     0.00000000     0.00000000     0.00000000
     0.00000000     0.00000000     0.00000000
     0.00000000     0.00000000     0.00000000
     0.00000000     0.00000000     0.00000000
     0.00000000     0.00000000     0.00000000
    -0.34185760     0.09266847     0.13839349
    -0.69274515    -0.13073814     0.25875919
    -0.61409840     0.03276158    -0.03840492
    -0.54164809     0.01198288    -0.08919778
    -0.48562277     0.00075297    -0.10111598
    -0.42396808     0.00277344    -0.10250295
    -0.35852738     0.01300551    -0.10059553
    -0.29024053     0.02808148    -0.09820110
    -0.22007393     0.04517257    -0.09533942
    -0.13875807     0.06707326    -0.08556744
     0.00000000     0.00000000     0.00000000
    -1.10305667     0.04694926     0.36808710
    -1.42071851    -0.17920133     0.30503335
    -1.27960374    -0.14679465    -0.10817994
    -1.07613786    -0.14553021    -0.21855646
    -0.90317304    -0.14599742    -0.24219331
    -0.75067654    -0.12564156    -0.23717829
    -0.60589260    -0.09687636    -0.22571013
    -0.46271848    -0.06277913    -0.21281695
    -0.31659930    -0.02270508    -0.19252183
    -0.15560438     0.00969254    -0.14091677
     0.00000000     0.00000000     0.00000000
    -1.30657565     0.16304257     0.35110107
    -1.57234602    -0.05399926     0.26576852
    -1.30871523    -0.29559585    -0.13075360
    -1.05900409    -0.32307832    -0.24830673
    -0.88050935    -0.29275698    -0.26076548
    -0.72566921    -0.25880875    -0.24838767
    -0.58000829    -0.22164899    -0.23221481
    -0.43585847    -0.18335877    -0.21669377
    -0.28740620    -0.14548982    -0.19511550
    -0.13045580    -0.09105858    -0.14280178
     0.00000000     0.00000000     0.00000000
    -0.57429080     0.12514429     0.08577887
    -0.91478713     0.06506518     0.16569436
    -0.57710203    -0.25140858    -0.11541024
    -0.47300703    -0.23583565    -0.12350403
    -0.41170024    -0.22611764    -0.11253689
    -0.35291283    -0.20909860    -0.10264660
    -0.29173639    -0.19103403    -0.09596453
    -0.22751111    -0.17252444    -0.09202435
    -0.16125340    -0.15320724    -0.08917513
    -0.08315849    -0.13125305    -0.08082059
     0.00000000     0.00000000     0.00000000
     0.00000000     0.00000000     0.00000000
     0.00000000     0.00000000     0.00000000
     0.00000000     0.00000000     0.00000000
     0.00000000     0.00000000     0.00000000
     0.00000000     0.00000000     0.00000000
     0.00000000     0.00000000     0.00000000
     0.00000000     0.00000000     0.00000000
     0.00000000     0.00000000     0.00000000
     0.00000000     0.00000000     0.00000000
     0.00000000     0.00000000     0.00000000
     0.00000000     0.00000000     0.00000000
     0.00000000     0.00000000     0.00000000
     0.00000000     0.00000000     0.00000000
     0.00000000     0.00000000     0.00000000
     0.00000000     0.00000000     0.00000000
     0.00000000     0.00000000     0.00000000
     0.00000000     0.00000000     0.00000000
     0.00000000     0.00000000     0.00000000
     0.00000000     0.00000000     0.00000000
     0.00000000     0.00000000     0.00000000
     0.00000000     0.00000000     0.00000000
     0.00000000     0.00000000     0.00000000
    -0.10909699     0.07918595     0.04817600
    -0.34991941    -0.05311923     0.16009291
    -0.21756315     0.06397908    -0.04655223
    -0.21194398     0.00996502    -0.05568814
    -0.21069369     0.00538570    -0.06351962
    -0.19806422     0.00251017    -0.06358805
    -0.17898364     0.00584575    -0.06275964
    -0.15577054     0.01152965    -0.06203263
    -0.13035600     0.01554103    -0.05982543
    -0.10727962     0.03392642    -0.06296688
     0.00000000     0.00000000     0.00000000
    -0.33839350     0.07750091     0.10801880
    -0.69467618    -0.06555909     0.20728448
    -0.51023309    -0.02619637    -0.11467023
    -0.43005054    -0.04499165    -0.13746110
    -0.38423057    -0.05782181    -0.14855673
    -0.34450567    -0.05500495    -0.14324135
    -0.30048330    -0.04720630    -0.13759145
    -0.25140243    -0.03586744    -0.13232272
    -0.19641328    -0.01913738    -0.12294511
    -0.12266227    -0.00059303    -0.10960627
     0.00000000     0.00000000     0.00000000
    -0.39157718     0.09094152     0.07141136
    -0.76252619    -0.00891600     0.18574283
    -0.50014577    -0.12116560    -0.13258354
    -0.40732449    -0.13144695    -0.15483633
    -0.36774892    -0.12618532    -0.15825747
    -0.33000052    -0.12116033    -0.14926710
    -0.28716263    -0.11118456    -0.14124564
    -0.23824934    -0.09841078    -0.13472711
    -0.18150525    -0.08563452    -0.12471681
    -0.10756336    -0.06370643    -0.11122985
     0.00000000     0.00000000     0.00000000
    -0.13338567     0.04244701    -0.04420718
    -0.43870382     0.03133794     0.09967374
    -0.16169253    -0.11425707    -0.09337359
    -0.17510387    -0.09029527    -0.07129109
    -0.17341042    -0.10236449    -0.06817406
    -0.16410069    -0.10053144    -0.06220996
    -0.14650429    -0.09689735    -0.05920540
    -0.12438007    -0.09131898    -0.05779797
    -0.10132879    -0.08226532    -0.05570596
    -0.07330382    -0.08641792    -0.05941705
     0.00000000     0.00000000     0.00000000
     0.00000000     0.00000000     0.00000000
     0.00000000     0.00000000     0.00000000
     0.00000000     0.00000000     0.00000000
     0.00000000     0.00000000     0.00000000
     0.00000000     0.00000000     0.00000000
     0.00000000     0.00000000     0.00000000
     0.00000000     0.00000000     0.00000000
     0.00000000     0.00000000     0.00000000
     0.00000000     0.00000000     0.00000000
     0.00000000     0.00000000     0.00000000
     0.00000000     0.00000000     0.00000000
     0.00000000     0.00000000     0.00000000
     0.00000000     0.00000000     0.00000000
     0.00000000     0.00000000     0.00000000
     0.00000000     0.00000000     0.00000000
     0.00000000     0.00000000     0.00000000
     0.00000000     0.00000000     0.00000000
     0.00000000     0.00000000     0.00000000
     0.00000000     0.00000000     0.00000000
     0.00000000     0.00000000     0.00000000
     0.00000000     0.00000000     0.00000000
     0.00000000     0.00000000     0.00000000
     0.00000000     0.00000000     0.00000000
     0.00000000     0.00000000     0.00000000
     0.00000000     0.00000000     0.00000000
     0.00000000     0.00000000     0.00000000
     0.00000000     0.00000000     0.00000000
     0.00000000     0.00000000     0.00000000
     0.00000000     0.00000000     0.00000000
     0.00000000     0.00000000     0.00000000
     0.00000000     0.00000000     0.00000000
     0.00000000     0.00000000     0.00000000
     0.00000000     0.00000000     0.00000000
     0.00000000     0.00000000     0.00000000
     0.00000000     0.00000000     0.00000000
     0.00000000     0.00000000     0.00000000
     0.00000000     0.00000000     0.00000000
     0.00000000     0.00000000     0.00000000
     0.00000000     0.00000000     0.00000000
     0.00000000     0.00000000     0.00000000
     0.00000000     0.00000000     0.00000000
     0.00000000     0.00000000     0.00000000
     0.00000000     0.00000000     0.00000000
     0.00000000     0.00000000     0.00000000
     0.00000000     0.00000000     0.00000000
     0.00000000     0.00000000     0.00000000
     0.00000000     0.00000000     0.00000000
     0.00000000     0.00000000     0.00000000
     0.00000000     0.00000000     0.00000000
     0.00000000     0.00000000     0.00000000
     0.00000000     0.00000000     0.00000000
     0.00000000     0.00000000     0.00000000
     0.00000000     0.00000000     0.00000000
     0.00000000     0.00000000     0.00000000
     0.00000000     0.00000000     0.00000000
     0.00000000     0.00000000     0.00000000
     0.00000000     0.00000000     0.00000000
     0.00000000     0.00000000     0.00000000
     0.00000000     0.00000000     0.00000000
     0.00000000     0.00000000     0.00000000
     0.00000000     0.00000000     0.00000000
     0.00000000     0.00000000     0.00000000
     0.00000000     0.00000000     0.00000000
     0.00000000     0.00000000     0.00000000
     0.00000000     0.00000000     0.00000000
     0.00000000     0.00000000     0.00000000
     0.00000000     0.00000000     0.00000000
     0.00000000     0.00000000     0.00000000
     0.00000000     0.00000000     0.00000000
     0.00000000     0.00000000     0.00000000
     0.00000000     0.00000000     0.00000000
     0.00000000     0.00000000     0.00000000
     0.00000000     0.00000000     0.00000000
     0.00000000     0.00000000     0.00000000
     0.00000000     0.00000000     0.00000000
     0.00000000     0.00000000     0.00000000
     0.00000000     0.00000000     0.00000000
     0.00000000     0.00000000     0.00000000
     0.00000000     0.00000000     0.00000000
     0.00000000     0.00000000     0.00000000
     0.00000000     0.00000000     0.00000000
     0.00000000     0.00000000     0.00000000
     0.00000000     0.00000000     0.00000000
     0.00000000     0.00000000     0.00000000
     0.00000000     0.00000000     0.00000000
    -1.55501810     0.17958877     0.00000000
    -1.49309678     0.28225247     0.00000000
    -1.23839996     0.20868995     0.00000000
    -0.96792711     0.15156974     0.00000000
    -0.73282709     0.09437680     0.00000000
    -0.52930310     0.04387703     0.00000000
    -0.34645957    -0.00094445     0.00000000
    -0.17929619    -0.04948068     0.00000000
     0.00000000     0.00000000     0.00000000
    -2.31175446     0.35654919     0.00000000
    -2.17721042     0.47853876     0.00000000
    -1.81410421     0.43098854     0.00000000
    -1.42588527     0.33923144     0.00000000
    -1.07093813     0.24526083     0.00000000
    -0.75235622     0.15910377     0.00000000
    -0.46224784     0.07927641     0.00000000
    -0.19836973     0.01113297     0.00000000
     0.00000000     0.00000000     0.00000000
    -2.28561279     0.32049556     0.00000000
    -2.10059695     0.57502833     0.00000000
    -1.72407783     0.54018876     0.00000000
    -1.35411357     0.44379798     0.00000000
    -1.01606425     0.34674556     0.00000000
    -0.71072291     0.25703559     0.00000000
    -0.42907920     0.17656264     0.00000000
    -0.17295584     0.09891010     0.00000000
     0.00000000     0.00000000     0.00000000
    -1.52289878     0.14769926     0.00000000
    -1.24434415     0.45951918     0.00000000
    -1.01531332     0.39486941     0.00000000
    -0.80089673     0.33941514     0.00000000
    -0.61265275     0.27915668     0.00000000
    -0.44106246     0.22615852     0.00000000
    -0.28007310     0.17591026     0.00000000
    -0.12389421     0.13517425     0.00000000
     0.00000000     0.00000000     0.00000000
     0.00000000     0.00000000     0.00000000
     0.00000000     0.00000000     0.00000000
     0.00000000     0.00000000     0.00000000
     0.00000000     0.00000000     0.00000000
     0.00000000     0.00000000     0.00000000
     0.00000000     0.00000000     0.00000000
     0.00000000     0.00000000     0.00000000
     0.00000000     0.00000000     0.00000000
     0.00000000     0.00000000     0.00000000
     0.00000000     0.00000000     0.00000000
     0.00000000     0.00000000     0.00000000
     0.00000000     0.00000000     0.00000000
     0.00000000     0.00000000     0.00000000
     0.00000000     0.00000000     0.00000000
     0.00000000     0.00000000     0.00000000
     0.00000000     0.00000000     0.00000000
     0.00000000     0.00000000     0.00000000
     0.00000000     0.00000000     0.00000000
    -1.42773167     0.17991349     0.18707301
    -1.35038246     0.24972558    -0.05215102
    -1.12132813     0.19016891    -0.08777127
    -0.88498637     0.13981641    -0.07406451
    -0.67728412     0.08859606    -0.05607285
    -0.49431076     0.04246054    -0.04452897
    -0.32706985     0.00084630    -0.03795639
    -0.17181059    -0.04525253    -0.03172637
     0.00000000     0.00000000     0.00000000
    -2.15077477     0.35306794     0.24859844
    -2.00801905     0.44065703    -0.05868586
    -1.67095632     0.39541433    -0.11094540
    -1.31936119     0.31347415    -0.10927994
    -0.99851305     0.22873794    -0.09042208
    -0.70795646     0.15012139    -0.07521872
    -0.43971745     0.07597760    -0.06312367
    -0.19128586     0.01157112    -0.04347855
     0.00000000     0.00000000     0.00000000
    -2.13956200     0.31638675     0.21690439
    -1.94855543     0.53639549    -0.04419146
    -1.59594755     0.49914294    -0.10787038
    -1.25802911     0.41141317    -0.10276100
    -0.95020044     0.32360908    -0.08598659
    -0.67031839     0.24184858    -0.07223990
    -0.40900160     0.16768950    -0.06133378
    -0.16735401     0.09472605    -0.04254634
     0.00000000     0.00000000     0.00000000
    -1.42019335     0.14675655     0.14735018
    -1.14163419     0.42626276    -0.04726643
    -0.93270957     0.36122500    -0.06663657
    -0.74003222     0.31220898    -0.05701594
    -0.57039322     0.25853957    -0.04516630
    -0.41414452     0.21082279    -0.03807047
    -0.26582095     0.16502059    -0.03412097
    -0.11994900     0.12785062    -0.02962749
     0.00000000     0.00000000     0.00000000
     0.00000000     0.00000000     0.00000000
     0.00000000     0.00000000     0.00000000
     0.00000000     0.00000000     0.00000000
     0.00000000     0.00000000     0.00000000
     0.00000000     0.00000000     0.00000000
     0.00000000     0.00000000     0.00000000
     0.00000000     0.00000000     0.00000000
     0.00000000     0.00000000     0.00000000
     0.00000000     0.00000000     0.00000000
     0.00000000     0.00000000     0.00000000
     0.00000000     0.00000000     0.00000000
     0.00000000     0.00000000     0.00000000
     0.00000000     0.00000000     0.00000000
     0.00000000     0.00000000     0.00000000
     0.00000000     0.00000000     0.00000000
     0.00000000     0.00000000     0.00000000
     0.00000000     0.00000000     0.00000000
     0.00000000     0.00000000     0.00000000
    -1.11870990     0.17675742     0.29509449
    -0.99701293     0.16871052    -0.08853175
    -0.83565891     0.14503141    -0.13864815
    -0.68460745     0.11198487    -0.11502954
    -0.54378354     0.07643039    -0.08746046
    -0.40980270     0.03982637    -0.07086110
    -0.28006822     0.00625162    -0.06173098
    -0.15415611    -0.03342362    -0.05339470
     0.00000000     0.00000000     0.00000000
    -1.72660446     0.33553527     0.40233045
    -1.55595370     0.33737158    -0.10462370
    -1.28742690     0.30030515    -0.18191080
    -1.03321919     0.24567961    -0.17432542
    -0.80357889     0.18595624    -0.14362392
    -0.58724400     0.12688098    -0.12122312
    -0.37749060     0.06773798    -0.10422587
    -0.17167788     0.01382005    -0.07448822
     0.00000000     0.00000000     0.00000000
    -1.74846833     0.30038712     0.35783632
    -1.53744543     0.42874348    -0.08265621
    -1.24902149     0.38866394    -0.17904529
    -0.99793846     0.32357044    -0.16557372
    -0.77234671     0.26036144    -0.13757113
    -0.56048300     0.19981076    -0.11700262
    -0.35378612     0.14257286    -0.10161727
    -0.15235351     0.08231059    -0.07309910
     0.00000000     0.00000000     0.00000000
    -1.16488107     0.14447240     0.24156132
    -0.88428658     0.34026420    -0.08336804
    -0.72768108     0.27829937    -0.10872713
    -0.59094022     0.24568507    -0.09075023
    -0.46844164     0.20742772    -0.07156858
    -0.34889399     0.17312647    -0.06120551
    -0.23151515     0.13777837    -0.05579064
    -0.11147678     0.10905069    -0.05002750
     0.00000000     0.00000000     0.00000000
     0.00000000     0.00000000     0.00000000
     0.00000000     0.00000000     0.00000000
     0.00000000     0.00000000     0.00000000
     0.00000000     0.00000000     0.00000000
     0.00000000     0.00000000     0.00000000
     0.00000000     0.00000000     0.00000000
     0.00000000     0.00000000     0.00000000
     0.00000000     0.00000000     0.00000000
     0.00000000     0.00000000     0.00000000
     0.00000000     0.00000000     0.00000000
     0.00000000     0.00000000     0.00000000
     0.00000000     0.00000000     0.00000000
     0.00000000     0.00000000     0.00000000
     0.00000000     0.00000000     0.00000000
     0.00000000     0.00000000     0.00000000
     0.00000000     0.00000000     0.00000000
     0.00000000     0.00000000     0.00000000
     0.00000000     0.00000000     0.00000000
    -0.72271487     0.14456533     0.28643998
    -0.54820365     0.06750492    -0.09902339
    -0.47813393     0.08555213    -0.13266187
    -0.43358721     0.07918899    -0.10747547
    -0.36843252     0.05838766    -0.08414867
    -0.29170683     0.03448441    -0.07005286
    -0.21204118     0.01078190    -0.06318605
    -0.12686331    -0.01779791    -0.05858925
     0.00000000     0.00000000     0.00000000
    -1.15293995     0.27072006     0.40692241
    -0.93502769     0.19138704    -0.12940191
    -0.76534851     0.17133819    -0.18226383
    -0.65017866     0.15764708    -0.16701065
    -0.53826490     0.12786328    -0.13877771
    -0.41708565     0.09355893    -0.12011764
    -0.28743899     0.05432935    -0.10795825
    -0.14142468     0.01599782    -0.08343945
     0.00000000     0.00000000     0.00000000
    -1.19807259     0.24686639     0.37300524
    -0.95536458     0.27124380    -0.10967073
    -0.76020807     0.23747490    -0.18348169
    -0.64078351     0.20417919    -0.16089077
    -0.52483612     0.17430265    -0.13437363
    -0.40256146     0.14086829    -0.11678287
    -0.27202168     0.10718522    -0.10576990
    -0.12823309     0.06410291    -0.08223485
     0.00000000     0.00000000     0.00000000
    -0.80881321     0.12470445     0.25066245
    -0.52603968     0.21815886    -0.10030637
    -0.44607921     0.16974690    -0.10920417
    -0.39261264     0.15588040    -0.08785530
    -0.32653507     0.13925304    -0.07058816
    -0.25350390     0.12030189    -0.06131585
    -0.17896399     0.10034012    -0.05747168
    -0.09673215     0.08189577    -0.05511697
     0.00000000     0.00000000     0.00000000
     0.00000000     0.00000000     0.00000000
     0.00000000     0.00000000     0.00000000
     0.00000000     0.00000000     0.00000000
     0.00000000     0.00000000     0.00000000
     0.00000000     0.00000000     0.00000000
     0.00000000     0.00000000     0.00000000
     0.00000000     0.00000000     0.00000000
     0.00000000     0.00000000     0.00000000
     0.00000000     0.00000000     0.00000000
     0.00000000     0.00000000     0.00000000
     0.00000000     0.00000000     0.00000000
     0.00000000     0.00000000     0.00000000
     0.00000000     0.00000000     0.00000000
     0.00000000     0.00000000     0.00000000
     0.00000000     0.00000000     0.00000000
     0.00000000     0.00000000     0.00000000
     0.00000000     0.00000000     0.00000000
     0.00000000     0.00000000     0.00000000
    -0.33762959     0.04683880     0.17732000
    -0.11877681    -0.01084525    -0.07532048
    -0.17169342     0.04815956    -0.07277849
    -0.19569848     0.04156762    -0.06179865
    -0.18326358     0.03401779    -0.05041986
    -0.15421952     0.02159235    -0.04391755
    -0.11998690     0.01254422    -0.03988712
    -0.09354587    -0.00263662    -0.04238432
     0.00000000     0.00000000     0.00000000
    -0.53086980     0.12366975     0.24444831
    -0.26170211     0.03831593    -0.10905644
    -0.26332251     0.06251867    -0.09784314
    -0.27539623     0.07203607    -0.09456431
    -0.25925593     0.06463749    -0.08063411
    -0.21975506     0.05211399    -0.07355934
    -0.16977413     0.03551792    -0.06794601
    -0.10654166     0.01719785    -0.06327961
     0.00000000     0.00000000     0.00000000
    -0.57554565     0.12886440     0.23504391
    -0.29041091     0.08872337    -0.10166747
    -0.27318023     0.07931881    -0.10162624
    -0.27938302     0.08595117    -0.09232190
    -0.25694763     0.08396243    -0.07909645
    -0.21495823     0.07341471    -0.07208704
    -0.16325260     0.06086704    -0.06689267
    -0.09984367     0.04314853    -0.06268249
     0.00000000     0.00000000     0.00000000
    -0.39568881     0.07902996     0.15872818
    -0.12478472     0.07617033    -0.08033727
    -0.18184909     0.05320970    -0.06195210
    -0.18446145     0.06902604    -0.05287009
    -0.16623588     0.06736546    -0.04320458
    -0.13593580     0.06198393    -0.03892357
    -0.10441542     0.05190631    -0.03635154
    -0.07679696     0.05131366    -0.03997455
     0.00000000     0.00000000     0.00000000
     0.00000000     0.00000000     0.00000000
     0.00000000     0.00000000     0.00000000
     0.00000000     0.00000000     0.00000000
     0.00000000     0.00000000     0.00000000
     0.00000000     0.00000000     0.00000000
     0.00000000     0.00000000     0.00000000
     0.00000000     0.00000000     0.00000000
     0.00000000     0.00000000     0.00000000
     0.00000000     0.00000000     0.00000000
     0.00000000     0.00000000     0.00000000
     0.00000000     0.00000000     0.00000000
     0.00000000     0.00000000     0.00000000
     0.00000000     0.00000000     0.00000000
     0.00000000     0.00000000     0.00000000
     0.00000000     0.00000000     0.00000000
     0.00000000     0.00000000     0.00000000
     0.00000000     0.00000000     0.00000000
     0.00000000     0.00000000     0.00000000
     0.00000000     0.00000000     0.00000000
     0.00000000     0.00000000     0.00000000
     0.00000000     0.00000000     0.00000000
     0.00000000     0.00000000     0.00000000
     0.00000000     0.00000000     0.00000000
     0.00000000     0.00000000     0.00000000
     0.00000000     0.00000000     0.00000000
     0.00000000     0.00000000     0.00000000
     0.00000000     0.00000000     0.00000000
     0.00000000     0.00000000     0.00000000
     0.00000000     0.00000000     0.00000000
     0.00000000     0.00000000     0.00000000
     0.00000000     0.00000000     0.00000000
     0.00000000     0.00000000     0.00000000
     0.00000000     0.00000000     0.00000000
     0.00000000     0.00000000     0.00000000
     0.00000000     0.00000000     0.00000000
     0.00000000     0.00000000     0.00000000
     0.00000000     0.00000000     0.00000000
     0.00000000     0.00000000     0.00000000
     0.00000000     0.00000000     0.00000000
     0.00000000     0.00000000     0.00000000
     0.00000000     0.00000000     0.00000000
     0.00000000     0.00000000     0.00000000
     0.00000000     0.00000000     0.00000000
     0.00000000     0.00000000     0.00000000
     0.00000000     0.00000000     0.00000000
     0.00000000     0.00000000     0.00000000
     0.00000000     0.00000000     0.00000000
     0.00000000     0.00000000     0.00000000
     0.00000000     0.00000000     0.00000000
     0.00000000     0.00000000     0.00000000
     0.00000000     0.00000000     0.00000000
     0.00000000     0.00000000     0.00000000
     0.00000000     0.00000000     0.00000000
     0.00000000     0.00000000     0.00000000
     0.00000000     0.00000000     0.00000000
     0.00000000     0.00000000     0.00000000
     0.00000000     0.00000000     0.00000000
     0.00000000     0.00000000     0.00000000
     0.00000000     0.00000000     0.00000000
     0.00000000     0.00000000     0.00000000
     0.00000000     0.00000000     0.00000000
     0.00000000     0.00000000     0.00000000
     0.00000000     0.00000000     0.00000000
     5.60447711    -0.89165019     0.00000000
     6.23603031    -1.49606691     0.00000000
     5.51918994    -2.19010333     0.00000000
     4.68409726    -2.66014528     0.00000000
     3.76436201    -2.84426734     0.00000000
     2.81842026    -2.77731272     0.00000000
     1.86878024    -2.41971540     0.00000000
     0.93212352    -1.70913076     0.00000000
     0.36259312    -1.05221575     0.00000000
     0.00000000     0.00000000     0.00000000
     5.60041115    -0.88314572     0.29828122
     6.22854676    -1.47323313     0.48114569
     5.51242755    -2.14743693     0.56590065
     4.68095004    -2.60605961     0.62871502
     3.76459146    -2.78527570     0.65816760
     2.82312245    -2.72136238     0.66156560
     1.87773220    -2.37453065     0.63624695
     0.94545582    -1.68389985     0.57681775
     0.37429371    -1.03853337     0.51446919
     0.00000000     0.00000000     0.39013774
     5.59073170    -0.85582148     0.59209952
     6.20728793    -1.40612992     0.95930490
     5.49290587    -2.02449898     1.13225709
     4.67147042    -2.45023125     1.26257093
     3.76519521    -2.61542905     1.32177757
     2.83623974    -2.55993134     1.32834128
     1.90348280    -2.24296385     1.27559341
     0.98256287    -1.60901745     1.15119149
     0.40671080    -0.99807327     1.00489000
     0.00000000     0.00000000     0.74841502
     5.57868635    -0.80892753     0.87366039
     6.17517433    -1.30037855     1.42567175
     5.46250101    -1.83516337     1.69741232
     4.65596511    -2.21079568     1.90129579
     3.76557967    -2.35504197     1.99086501
     2.85565248    -2.31098504     2.00041823
     1.94198790    -2.03697274     1.91573229
     1.03674680    -1.48814820     1.71802886
     0.45205194    -0.93288899     1.45486485
     0.00000000     0.00000000     1.04956390
     5.56710679    -0.74319288     1.13780107
     6.13519724    -1.16483056     1.87253975
     5.42332291    -1.59921509     2.25321858
     4.63528178    -1.91433300     2.53565773
     3.76486231    -2.03325807     2.65669475
     2.87832337    -2.00153680     2.66845761
     1.98810899    -1.77486268     2.54640660
     1.09724629    -1.32857168     2.26915998
     0.50132994    -0.84953231     1.85722030
     0.00000000     0.00000000     1.28138308
     5.55096276    -0.66434368     1.37450801
     6.08622144    -1.00926668     2.28592007
     5.37925441    -1.33810743     2.78501469
     4.61021670    -1.59063033     3.14699203
     3.76291068    -1.68211019     3.30005930
     2.90006602    -1.66101308     3.31375394
     2.03647582    -1.48161632     3.14768695
     1.15756658    -1.13715061     2.79403130
     0.54145250    -0.75605932     2.21138374
     0.00000000     0.00000000     1.44353327
     5.51413177    -0.57580521     1.58009495
     6.03474000    -0.84285947     2.65680624
     5.33348820    -1.07271406     3.26897554
     4.58387054    -1.26490301     3.71001011
     3.75683791    -1.32998555     3.89328866
     2.91955202    -1.31737862     3.90735546
     2.07880434    -1.17921874     3.69627057
     1.21242484    -0.93083693     3.27204693
     0.58057481    -0.63816038     2.53400350
     0.00000000     0.00000000     1.59560386
     5.47721046    -0.47508607     1.75055300
     5.98212008    -0.67138242     2.96704127
     5.29016245    -0.81759356     3.68068451
     4.55526809    -0.95509196     4.19434591
     3.74920427    -0.99642697     4.40258587
     2.92964383    -0.98958302     4.41825983
     2.11424292    -0.88813069     4.16092489
     1.24868320    -0.71742198     3.68311541
     0.61014914    -0.51689456     2.81006025
     0.00000000     0.00000000     1.63791887
     5.44810118    -0.37088435     1.87409076
     5.93762888    -0.49683925     3.20300922
     5.25025213    -0.58163154     3.99698701
     4.52869472    -0.66704470     4.56753252
     3.73545159    -0.69170756     4.79686558
     2.93377456    -0.68514486     4.81084282
     2.12981645    -0.61884183     4.51823145
     1.27474609    -0.50705608     3.99205847
     0.61863513    -0.39659498     3.02547705
     0.00000000     0.00000000     1.59876915
     5.42733952    -0.26104566     1.94994263
     5.90327252    -0.32498296     3.35023175
     5.21863119    -0.36035588     4.19753888
     4.50272166    -0.40241166     4.80401372
     3.72030325    -0.41033447     5.04665203
     2.92500152    -0.40601742     5.05873762
     2.13258788    -0.36736979     4.74244705
     1.26432781    -0.30575219     4.17973703
     0.61007314    -0.27819606     3.14838984
     0.00000000     0.00000000     1.50097222
     5.41380476    -0.15284351     1.97550296
     5.88148060    -0.15058297     3.40107839
     5.19515465    -0.15150993     4.26780133
     4.48185798    -0.14790323     4.88553079
     3.69970432    -0.14626835     5.13441559
     2.90990435    -0.13833899     5.14132461
     2.11435604    -0.12953417     4.81852561
     1.25977605    -0.11242315     4.23284284
     0.56335368    -0.14679482     3.16912005
     0.00000000     0.00000000     1.30394648
     5.40747209    -0.04138058     1.95005236
     5.87174969     0.02030089     3.35298148
     5.18237848     0.06058758     4.20085520
     4.46416866     0.10342470     4.80858157
     3.67846600     0.12171080     5.04904953
     2.88199047     0.12438797     5.06011830
     2.08669023     0.11421050     4.72956847
     1.21425914     0.07133660     4.16592072
     0.62299483     0.00604930     3.17827956
     0.00000000     0.00000000     1.82321643
     5.40918586     0.06528337     1.87537998
     5.87468492     0.19559622     3.20682342
     5.17965851     0.27920552     4.00399589
     4.45061332     0.37141933     4.57626151
     3.65525379     0.39947233     4.80166326
     2.84421189     0.40815229     4.81550414
     2.04358821     0.35699920     4.49536334
     1.16105811     0.28170071     3.96891532
     0.62452459     0.12197015     3.09113374
     0.00000000     0.00000000     1.98861326
     5.41950998     0.17201372     1.75094087
     5.89043374     0.36769084     2.97402902
     5.18505436     0.51775262     3.68983267
     4.44247096     0.65768560     4.20652906
     3.62766292     0.70613531     4.41142690
     2.80252069     0.70993399     4.42381183
     1.97913056     0.62391550     4.14094114
     1.09316734     0.48995727     3.64452870
     0.58247119     0.25708433     2.91752710
     0.00000000     0.00000000     2.06369954
     5.44005465     0.27036983     1.58241822
     5.91525044     0.54147709     2.66300113
     5.19835478     0.77156176     3.28097369
     4.43605719     0.96913011     3.72394158
     3.60144251     1.03774616     3.90585848
     2.75227791     1.03646728     3.91499395
     1.90707104     0.90872351     3.68247649
     1.01316064     0.69207337     3.23127634
     0.52037882     0.41412475     2.64908284
     0.00000000     0.00000000     2.03437621
     5.46129453     0.36037938     1.37529919
     5.94315067     0.70639538     2.29413918
     5.21568580     1.03844824     2.79706042
     4.43396210     1.29343084     3.16227732
     3.57385800     1.38946060     3.31476591
     2.70245691     1.37439685     3.32317024
     1.82706740     1.20280134     3.14255573
     0.93041981     0.87523414     2.75849560
     0.43993150     0.56537009     2.30843501
     0.00000000     0.00000000     1.78213441
     5.46485669     0.43782026     1.13994772
     5.97103063     0.86299893     1.87914855
     5.23698181     1.29884513     2.26540832
     4.43293701     1.61686984     2.55017730
     3.55043301     1.73754703     2.67161312
     2.65179040     1.70775809     2.67960225
     1.75216341     1.48230747     2.54570965
     0.84268396     1.03262516     2.25078437
     0.38409923     0.65847422     1.96346510
     0.00000000     0.00000000     1.58032531
     5.46552676     0.50396349     0.87471947
     5.99486300     0.99783113     1.43206787
     5.25702854     1.53500802     1.70736774
     4.43430969     1.91171845     1.91412143
     3.52951834     2.05566529     2.00387191
     2.60860204     2.00832606     2.01105633
     1.68386053     1.72512303     1.91750773
     0.76181196     1.15474501     1.71438779
     0.31959042     0.73760610     1.55652852
     0.00000000     0.00000000     1.28586511
     5.46999312     0.55030148     0.59337462
     6.01469785     1.10372045     0.96349670
     5.27415106     1.72369405     1.13977931
     4.43511278     2.14988498     1.27178949
     3.51477273     2.31180605     1.33148413
     2.57378895     2.24803715     1.33654573
     1.63123554     1.91139018     1.27732030
     0.69232268     1.23849094     1.15565802
     0.26707011     0.79623298     1.08272540
     0.00000000     0.00000000     0.91320590
     5.47486446     0.57762383     0.29875861
     6.02876778     1.17048402     0.48338727
     5.28528218     1.84643691     0.56976403
     4.43625760     2.30440124     0.63365707
     3.50507297     2.47849572     0.66326668
     2.55237278     2.40232762     0.66597909
     1.59696272     2.02765497     0.63716184
     0.64751899     1.28593690     0.58130731
     0.23136161     0.82967274     0.55674580
     0.00000000     0.00000000     0.47391298
     5.47751525     0.58593025     0.00000000
     6.03371842     1.19330718     0.00000000
     5.28941006     1.88888504     0.00000000
     4.43640031     2.35810019     0.00000000
     3.50213188     2.53621295     0.00000000
     2.54466360     2.45559320     0.00000000
     1.58562774     2.06711179     0.00000000
     0.63142076     1.30079261     0.00000000
     0.21926531     0.84077541     0.00000000
     0.00000000     0.00000000     0.00000000
     4.76474041    -0.39190627     0.00000000
     4.62696819    -0.33666875     0.00000000
     4.50861118    -0.28837722     0.00000000
     4.42699202    -0.24280009     0.00000000
     4.39827599    -0.20039135     0.00000000
     4.40848822    -0.15231308     0.00000000
     4.38383246    -0.10606833     0.00000000
     4.39744178    -0.06297630     0.00000000
     4.46647059    -0.01877250     0.00000000
     4.57294711     0.02961968     0.00000000
     4.70023052     0.08398113     0.00000000
     4.76585086    -0.39095383     0.13589331
     4.63963978    -0.33855402     0.15093588
     4.52998765    -0.29126273     0.16004553
     4.44703565    -0.24591792     0.16262346
     4.40503862    -0.19885840     0.16431896
     4.39530177    -0.15240218     0.16679433
     4.39044664    -0.10751831     0.16403748
     4.41769758    -0.05991511     0.16228872
     4.48816630    -0.01577224     0.15972776
     4.58618511     0.03144757     0.15074027
     4.70219423     0.08305429     0.13554485
     4.76889483    -0.38744681     0.26420185
     4.66607204    -0.34046630     0.29083073
     4.57371233    -0.29534253     0.30751487
     4.49806722    -0.24604772     0.31709086
     4.44265242    -0.19854529     0.32175611
     4.41869021    -0.15247404     0.31715176
     4.42860055    -0.10764840     0.32115325
     4.47026302    -0.05983222     0.31612198
     4.53384437    -0.01150453     0.30627190
     4.61491027     0.03345826     0.28972494
     4.70774659     0.07970654     0.26342271
     4.77399166    -0.37977994     0.38431473
     4.70047396    -0.33867637     0.42513326
     4.63126250    -0.29272116     0.45454988
     4.56562096    -0.24571182     0.47331236
     4.51631024    -0.19948704     0.47584872
     4.48981538    -0.15247042     0.47214135
     4.50343942    -0.10652347     0.47493155
     4.54004974    -0.06001305     0.47200797
     4.59448296    -0.01396226     0.45286490
     4.65298246     0.03185347     0.42354145
     4.71693425     0.07238524     0.38262115
     4.77873734    -0.36557117     0.49409692
     4.73676968    -0.32846394     0.55341507
     4.68878492    -0.28725852     0.59801338
     4.64513529    -0.24389597     0.62303074
     4.61134974    -0.19877195     0.63324421
     4.59293791    -0.15242501     0.63299988
     4.59990009    -0.10703180     0.63239462
     4.62229139    -0.06164480     0.62159314
     4.65567292    -0.01907287     0.59621176
     4.69404614     0.02184941     0.55161541
     4.72725680     0.05844225     0.49241148
     4.77739196    -0.34357363     0.59213633
     4.76519401    -0.31266205     0.67089796
     4.74799266    -0.27716487     0.73094952
     4.73193132    -0.23822975     0.77109537
     4.71973659    -0.19545282     0.79528223
     4.71209011    -0.15311872     0.80244237
     4.70983117    -0.10882928     0.79401818
     4.71221993    -0.06808156     0.77051386
     4.71903981    -0.02821492     0.72855635
     4.72791361     0.00610488     0.66941743
     4.73260321     0.03696026     0.59008644
